*SPEF "IEEE 1481-1999"
*DESIGN "sar_ctrl_a"
*DATE "Thu Jan 01 00:00:00 1970"
*VENDOR "2AM Logic"
*PROGRAM "klt extract"
*VERSION "0.7.0+gd1e9e119331f"
*DESIGN_FLOW "NAME_SCOPE LOCAL" "PIN_CAP NONE"
*DIVIDER /
*DELIMITER :
*BUS_DELIMITER [ ]
*T_UNIT 1 PS
*C_UNIT 1 FF
*R_UNIT 1 OHM
*L_UNIT 1 HENRY

*PORTS
VDD B
VSS B
c0_r B
c1_r B
c2_r B
c3_r B
c4_r B
c5_r B
c6_r B
c7_r B
c8_r B
c9_r B
clk B
cmp B
mode B
ph\[15\] B
rel_n_128n B
rel_n_128p B
rel_n_16n B
rel_n_16p B
rel_n_1n B
rel_n_1p B
rel_n_256n B
rel_n_256p B
rel_n_2n B
rel_n_2p B
rel_n_32n B
rel_n_32p B
rel_n_4n B
rel_n_4p B
rel_n_64n B
rel_n_64p B
rel_n_8n B
rel_n_8p B
samp_tp_n B
sel_hi_n_128n B
sel_hi_n_128p B
sel_hi_n_16n B
sel_hi_n_16p B
sel_hi_n_1n B
sel_hi_n_1p B
sel_hi_n_256n B
sel_hi_n_256p B
sel_hi_n_2n B
sel_hi_n_2p B
sel_hi_n_32n B
sel_hi_n_32p B
sel_hi_n_4n B
sel_hi_n_4p B
sel_hi_n_64n B
sel_hi_n_64p B
sel_hi_n_8n B
sel_hi_n_8p B
sel_in_n B
sel_lo_n_128n B
sel_lo_n_128p B
sel_lo_n_16n B
sel_lo_n_16p B
sel_lo_n_1n B
sel_lo_n_1p B
sel_lo_n_256n B
sel_lo_n_256p B
sel_lo_n_2n B
sel_lo_n_2p B
sel_lo_n_32n B
sel_lo_n_32p B
sel_lo_n_4n B
sel_lo_n_4p B
sel_lo_n_64n B
sel_lo_n_64p B
sel_lo_n_8n B
sel_lo_n_8p B
start B

*D_NET \$106 0.349461
*CAP
1 \$106:1 0.331653
2 \$106:1 eng4:1 0.008119
3 \$106:1 mode 0.009689
*RES
1 \$106:1 \$106:2 0.567400
2 \$106:1 \$106:3 0.605500
3 \$106:1 \$106:4 0.038100
*END

*D_NET \$107 0.340704
*CAP
1 \$107:1 0.340704
*RES
1 \$107:1 \$107:2 0.567400
2 \$107:1 \$107:3 0.038100
3 \$107:1 \$107:4 0.605500
*END

*D_NET \$108 0.342573
*CAP
1 \$108:1 0.338772
2 \$108:1 mode 0.003801
*RES
1 \$108:1 \$108:2 0.567400
2 \$108:1 \$108:3 0.038100
3 \$108:1 \$108:4 0.605500
*END

*D_NET \$131 3.073007
*CAP
1 \$131:1 3.068875
2 \$131:1 clknet_2_0__leaf_clk:1 0.004132
*RES
1 \$131:1 \$131:2 87.702700
2 \$131:1 \$131:3 71.874500
3 \$131:1 \$131:4 28.396700
4 \$131:1 \$131:5 16.171300
5 \$131:1 \$131:6 37.693700
6 \$131:1 \$131:7 38.248800
7 \$131:1 \$131:8 51.646900
8 \$131:1 \$131:9 52.376700
*END

*D_NET \$132 0.878539
*CAP
1 \$132:1 0.878539
*RES
1 \$132:1 \$132:2 10.946100
2 \$132:1 \$132:3 10.670300
3 \$132:1 \$132:4 6.353500
4 \$132:1 \$132:5 10.633800
5 \$132:1 \$132:6 10.936800
6 \$132:1 \$132:7 6.366200
*END

*D_NET \$133 2.460247
*CAP
1 \$133:1 2.447152
2 \$133:1 _029_:1 0.003801
3 \$133:1 clknet_2_0__leaf_clk:1 0.005628
4 \$133:1 ph\[10\]:1 0.003666
*RES
1 \$133:1 \$133:2 11.158400
2 \$133:1 \$133:3 5.543100
3 \$133:1 \$133:4 29.823700
4 \$133:1 \$133:5 22.358100
5 \$133:1 \$133:6 22.218400
6 \$133:1 \$133:7 22.454800
*END

*D_NET \$134 1.401588
*CAP
1 \$134:1 1.396022
2 \$134:1 _047_:1 0.001765
3 \$134:1 ph\[11\]:1 0.003801
*RES
1 \$134:1 \$134:2 23.112000
2 \$134:1 \$134:3 15.829900
3 \$134:1 \$134:4 25.697900
4 \$134:1 \$134:5 13.884900
5 \$134:1 \$134:6 26.929500
6 \$134:1 \$134:7 29.099300
*END

*D_NET \$135 3.077534
*CAP
1 \$135:1 3.064197
2 \$135:1 clknet_2_0__leaf_clk:1 0.013337
*RES
1 \$135:1 \$135:2 87.702700
2 \$135:1 \$135:3 71.874500
3 \$135:1 \$135:4 28.396700
4 \$135:1 \$135:5 16.171300
5 \$135:1 \$135:6 37.693700
6 \$135:1 \$135:7 38.248800
7 \$135:1 \$135:8 51.646900
8 \$135:1 \$135:9 52.376700
*END

*D_NET \$136 0.878539
*CAP
1 \$136:1 0.878539
*RES
1 \$136:1 \$136:2 10.946100
2 \$136:1 \$136:3 10.670300
3 \$136:1 \$136:4 6.366200
4 \$136:1 \$136:5 6.353500
5 \$136:1 \$136:6 10.633800
6 \$136:1 \$136:7 10.936800
*END

*D_NET \$137 2.461523
*CAP
1 \$137:1 2.445833
2 \$137:1 _001_:1 0.003801
3 \$137:1 _002_:1 0.003801
4 \$137:1 _030_:1 0.003801
5 \$137:1 clknet_2_0__leaf_clk:1 0.004287
*RES
1 \$137:1 \$137:2 5.543100
2 \$137:1 \$137:3 11.158400
3 \$137:1 \$137:4 29.823700
4 \$137:1 \$137:5 22.358100
5 \$137:1 \$137:6 22.218400
6 \$137:1 \$137:7 22.454800
*END

*D_NET \$138 1.398851
*CAP
1 \$138:1 1.398851
*RES
1 \$138:1 \$138:2 13.884900
2 \$138:1 \$138:3 25.697900
3 \$138:1 \$138:4 15.829900
4 \$138:1 \$138:5 23.112000
5 \$138:1 \$138:6 26.929500
6 \$138:1 \$138:7 29.099300
*END

*D_NET \$140 0.969036
*CAP
1 \$140:1 0.957384
2 \$140:1 c0_r 0.003884
3 \$140:1 eng3:1 0.003884
4 \$140:1 eng4:1 0.003884
*RES
1 \$140:1 \$140:2 13.825400
2 \$140:1 \$140:3 10.277200
3 \$140:1 \$140:4 12.259000
4 \$140:1 \$140:5 11.230200
5 \$140:1 \$140:6 7.539600
*END

*D_NET \$142 0.963306
*CAP
1 \$142:1 0.963306
*RES
1 \$142:1 \$142:2 10.277200
2 \$142:1 \$142:3 13.825400
3 \$142:1 \$142:4 12.259000
4 \$142:1 \$142:5 7.539600
5 \$142:1 \$142:6 11.230200
*END

*D_NET \$144 0.963306
*CAP
1 \$144:1 0.963306
*RES
1 \$144:1 \$144:2 10.277200
2 \$144:1 \$144:3 13.825400
3 \$144:1 \$144:4 12.259000
4 \$144:1 \$144:5 7.539600
5 \$144:1 \$144:6 11.230200
*END

*D_NET \$145 0.344729
*CAP
1 \$145:1 0.336545
2 \$145:1 mode 0.004383
3 \$145:1 rel_n_2n 0.003801
*RES
1 \$145:1 \$145:2 0.567400
2 \$145:1 \$145:3 0.038100
3 \$145:1 \$145:4 0.605500
*END

*D_NET \$146 0.967484
*CAP
1 \$146:1 0.958987
2 \$146:1 mode 0.004696
3 \$146:1 sel_hi_n_4p 0.003801
*RES
1 \$146:1 \$146:2 10.277200
2 \$146:1 \$146:3 13.825400
3 \$146:1 \$146:4 12.259000
4 \$146:1 \$146:5 7.539600
5 \$146:1 \$146:6 11.230200
*END

*D_NET \$149 0.342492
*CAP
1 \$149:1 0.338856
2 \$149:1 sel_hi_n_32p 0.003636
*RES
1 \$149:1 \$149:2 0.567400
2 \$149:1 \$149:3 0.038100
3 \$149:1 \$149:4 0.605500
*END

*D_NET \$150 0.967525
*CAP
1 \$150:1 0.958945
2 \$150:1 _031_:1 0.003884
3 \$150:1 q6:1 0.004696
*RES
1 \$150:1 \$150:2 10.277200
2 \$150:1 \$150:3 13.825400
3 \$150:1 \$150:4 12.259000
4 \$150:1 \$150:5 7.539600
5 \$150:1 \$150:6 11.230200
*END

*D_NET \$151 0.342813
*CAP
1 \$151:1 0.338525
2 \$151:1 mode 0.000487
3 \$151:1 rel_n_4n 0.003801
*RES
1 \$151:1 \$151:2 0.567400
2 \$151:1 \$151:3 0.038100
3 \$151:1 \$151:4 0.605500
*END

*D_NET \$152 3.076746
*CAP
1 \$152:1 3.065011
2 \$152:1 _038_:1 0.007603
3 \$152:1 clknet_2_2__leaf_clk:1 0.004132
*RES
1 \$152:1 \$152:2 87.702700
2 \$152:1 \$152:3 71.874500
3 \$152:1 \$152:4 28.396700
4 \$152:1 \$152:5 16.171300
5 \$152:1 \$152:6 37.693700
6 \$152:1 \$152:7 38.248800
7 \$152:1 \$152:8 51.646900
8 \$152:1 \$152:9 52.376700
*END

*D_NET \$153 0.878539
*CAP
1 \$153:1 0.878539
*RES
1 \$153:1 \$153:2 10.946100
2 \$153:1 \$153:3 10.670300
3 \$153:1 \$153:4 6.366200
4 \$153:1 \$153:5 6.353500
5 \$153:1 \$153:6 10.633800
6 \$153:1 \$153:7 10.936800
*END

*D_NET \$154 2.464982
*CAP
1 \$154:1 2.442259
2 \$154:1 _005_:1 0.010076
3 \$154:1 clknet_2_2__leaf_clk:1 0.012647
*RES
1 \$154:1 \$154:2 5.543100
2 \$154:1 \$154:3 11.158400
3 \$154:1 \$154:4 29.823700
4 \$154:1 \$154:5 22.358100
5 \$154:1 \$154:6 22.218400
6 \$154:1 \$154:7 22.454800
*END

*D_NET \$155 1.399986
*CAP
1 \$155:1 1.397678
2 \$155:1 _009_\[7\]:1 0.002308
*RES
1 \$155:1 \$155:2 13.884900
2 \$155:1 \$155:3 25.697900
3 \$155:1 \$155:4 15.829900
4 \$155:1 \$155:5 23.112000
5 \$155:1 \$155:6 26.929500
6 \$155:1 \$155:7 29.099300
*END

*D_NET \$156 3.072844
*CAP
1 \$156:1 3.069043
2 \$156:1 ph\[7\]:1 0.003801
*RES
1 \$156:1 \$156:2 87.702700
2 \$156:1 \$156:3 71.874500
3 \$156:1 \$156:4 28.396700
4 \$156:1 \$156:5 16.171300
5 \$156:1 \$156:6 37.693700
6 \$156:1 \$156:7 38.248800
7 \$156:1 \$156:8 51.646900
8 \$156:1 \$156:9 52.376700
*END

*D_NET \$157 0.878539
*CAP
1 \$157:1 0.878539
*RES
1 \$157:1 \$157:2 10.946100
2 \$157:1 \$157:3 10.670300
3 \$157:1 \$157:4 6.366200
4 \$157:1 \$157:5 6.353500
5 \$157:1 \$157:6 10.633800
6 \$157:1 \$157:7 10.936800
*END

*D_NET \$158 2.458293
*CAP
1 \$158:1 2.449172
2 \$158:1 _009_\[0\]:1 0.005320
3 \$158:1 ph\[7\]:1 0.003801
*RES
1 \$158:1 \$158:2 5.543100
2 \$158:1 \$158:3 11.158400
3 \$158:1 \$158:4 29.823700
4 \$158:1 \$158:5 22.358100
5 \$158:1 \$158:6 22.218400
6 \$158:1 \$158:7 22.454800
*END

*D_NET \$159 1.398851
*CAP
1 \$159:1 1.398851
*RES
1 \$159:1 \$159:2 13.884900
2 \$159:1 \$159:3 25.697900
3 \$159:1 \$159:4 15.829900
4 \$159:1 \$159:5 23.112000
5 \$159:1 \$159:6 26.929500
6 \$159:1 \$159:7 29.099300
*END

*D_NET \$160 0.990097
*CAP
1 \$160:1 0.977577
2 \$160:1 _029_:1 0.012520
*RES
1 \$160:1 \$160:2 14.858900
2 \$160:1 \$160:3 12.392500
3 \$160:1 \$160:4 6.064300
4 \$160:1 \$160:5 13.260000
5 \$160:1 \$160:6 11.965000
6 \$160:1 \$160:7 5.885000
*END

*D_NET \$161 1.022922
*CAP
1 \$161:1 1.011270
2 \$161:1 _047_:1 0.003884
3 \$161:1 ph\[10\]:1 0.003884
4 \$161:1 ph\[11\]:1 0.003884
*RES
1 \$161:1 \$161:2 10.182900
2 \$161:1 \$161:3 9.506900
3 \$161:1 \$161:4 8.476300
4 \$161:1 \$161:5 4.216200
5 \$161:1 \$161:6 8.414300
6 \$161:1 \$161:7 4.848000
*END

*D_NET \$162 0.995165
*CAP
1 \$162:1 0.972339
2 \$162:1 _030_:1 0.022826
*RES
1 \$162:1 \$162:2 14.858900
2 \$162:1 \$162:3 12.392500
3 \$162:1 \$162:4 13.260000
4 \$162:1 \$162:5 6.064300
5 \$162:1 \$162:6 11.965000
6 \$162:1 \$162:7 5.885000
*END

*D_NET \$163 1.023895
*CAP
1 \$163:1 1.010263
2 \$163:1 _001_:1 0.013632
*RES
1 \$163:1 \$163:2 9.506900
2 \$163:1 \$163:3 10.182900
3 \$163:1 \$163:4 8.476300
4 \$163:1 \$163:5 4.216200
5 \$163:1 \$163:6 8.414300
6 \$163:1 \$163:7 4.848000
*END

*D_NET \$170 0.991812
*CAP
1 \$170:1 0.975804
2 \$170:1 clknet_2_2__leaf_clk:1 0.016008
*RES
1 \$170:1 \$170:2 14.858900
2 \$170:1 \$170:3 12.392500
3 \$170:1 \$170:4 13.260000
4 \$170:1 \$170:5 6.064300
5 \$170:1 \$170:6 11.965000
6 \$170:1 \$170:7 5.885000
*END

*D_NET \$171 1.017842
*CAP
1 \$171:1 1.016520
2 \$171:1 clknet_2_2__leaf_clk:1 0.001322
*RES
1 \$171:1 \$171:2 9.506900
2 \$171:1 \$171:3 10.182900
3 \$171:1 \$171:4 8.476300
4 \$171:1 \$171:5 4.216200
5 \$171:1 \$171:6 8.414300
6 \$171:1 \$171:7 4.848000
*END

*D_NET \$172 0.995165
*CAP
1 \$172:1 0.972339
2 \$172:1 ph\[7\]:1 0.022826
*RES
1 \$172:1 \$172:2 14.858900
2 \$172:1 \$172:3 12.392500
3 \$172:1 \$172:4 13.260000
4 \$172:1 \$172:5 6.064300
5 \$172:1 \$172:6 11.965000
6 \$172:1 \$172:7 5.885000
*END

*D_NET \$173 1.017192
*CAP
1 \$173:1 1.017192
*RES
1 \$173:1 \$173:2 9.506900
2 \$173:1 \$173:3 10.182900
3 \$173:1 \$173:4 8.476300
4 \$173:1 \$173:5 4.216200
5 \$173:1 \$173:6 8.414300
6 \$173:1 \$173:7 4.848000
*END

*D_NET \$250 0.970864
*CAP
1 \$250:1 0.955494
2 \$250:1 c0_r 0.003884
3 \$250:1 eng3:1 0.007685
4 \$250:1 q3:1 0.003801
*RES
1 \$250:1 \$250:2 10.277200
2 \$250:1 \$250:3 12.259000
3 \$250:1 \$250:4 13.825400
4 \$250:1 \$250:5 11.230200
5 \$250:1 \$250:6 7.539600
*END

*D_NET \$251 0.970590
*CAP
1 \$251:1 0.955778
2 \$251:1 mode 0.004696
3 \$251:1 sel_hi_n_128p 0.003884
4 \$251:1 sel_lo_n_128n 0.006232
*RES
1 \$251:1 \$251:2 10.277200
2 \$251:1 \$251:3 12.259000
3 \$251:1 \$251:4 13.825400
4 \$251:1 \$251:5 11.230200
5 \$251:1 \$251:6 7.539600
*END

*D_NET \$252 0.967126
*CAP
1 \$252:1 0.959358
2 \$252:1 eng1:1 0.003884
3 \$252:1 sel_hi_n_128p 0.003884
*RES
1 \$252:1 \$252:2 10.277200
2 \$252:1 \$252:3 12.259000
3 \$252:1 \$252:4 13.825400
4 \$252:1 \$252:5 11.230200
5 \$252:1 \$252:6 7.539600
*END

*D_NET \$253 0.968995
*CAP
1 \$253:1 0.957426
2 \$253:1 eng2:1 0.007685
3 \$253:1 eng7:1 0.003884
*RES
1 \$253:1 \$253:2 10.277200
2 \$253:1 \$253:3 12.259000
3 \$253:1 \$253:4 13.825400
4 \$253:1 \$253:5 11.230200
5 \$253:1 \$253:6 7.539600
*END

*D_NET \$254 0.965216
*CAP
1 \$254:1 0.961332
2 \$254:1 eng1:1 0.003884
*RES
1 \$254:1 \$254:2 10.277200
2 \$254:1 \$254:3 12.259000
3 \$254:1 \$254:4 13.825400
4 \$254:1 \$254:5 11.230200
5 \$254:1 \$254:6 7.539600
*END

*D_NET \$256 0.963306
*CAP
1 \$256:1 0.963306
*RES
1 \$256:1 \$256:2 10.277200
2 \$256:1 \$256:3 12.259000
3 \$256:1 \$256:4 13.825400
4 \$256:1 \$256:5 11.230200
5 \$256:1 \$256:6 7.539600
*END

*D_NET \$264 0.965326
*CAP
1 \$264:1 0.959530
2 \$264:1 _009_\[7\]:1 0.005796
*RES
1 \$264:1 \$264:2 11.624900
2 \$264:1 \$264:3 14.986300
3 \$264:1 \$264:4 13.314900
4 \$264:1 \$264:5 7.616400
5 \$264:1 \$264:6 11.822800
*END

*D_NET \$265 3.076583
*CAP
1 \$265:1 3.065179
2 \$265:1 _014_:1 0.003801
3 \$265:1 clknet_2_2__leaf_clk:1 0.007603
*RES
1 \$265:1 \$265:2 87.702700
2 \$265:1 \$265:3 71.874500
3 \$265:1 \$265:4 28.396700
4 \$265:1 \$265:5 16.171300
5 \$265:1 \$265:6 37.693700
6 \$265:1 \$265:7 38.248800
7 \$265:1 \$265:8 51.646900
8 \$265:1 \$265:9 52.376700
*END

*D_NET \$266 2.455676
*CAP
1 \$266:1 2.451875
2 \$266:1 ph\[7\]:1 0.003801
*RES
1 \$266:1 \$266:2 29.823700
2 \$266:1 \$266:3 22.358100
3 \$266:1 \$266:4 5.543100
4 \$266:1 \$266:5 11.158400
5 \$266:1 \$266:6 22.218400
6 \$266:1 \$266:7 22.454800
*END

*D_NET \$268 0.990497
*CAP
1 \$268:1 0.977163
2 \$268:1 _014_:1 0.011298
3 \$268:1 ph\[7\]:1 0.002036
*RES
1 \$268:1 \$268:2 12.392500
2 \$268:1 \$268:3 14.858900
3 \$268:1 \$268:4 11.965000
4 \$268:1 \$268:5 5.885000
5 \$268:1 \$268:6 13.260000
6 \$268:1 \$268:7 6.064300
*END

*D_NET \$269 0.880408
*CAP
1 \$269:1 0.876607
2 \$269:1 ph\[7\]:1 0.003801
*RES
1 \$269:1 \$269:2 10.670300
2 \$269:1 \$269:3 10.946100
3 \$269:1 \$269:4 6.353500
4 \$269:1 \$269:5 10.633800
5 \$269:1 \$269:6 6.366200
6 \$269:1 \$269:7 10.936800
*END

*D_NET \$270 1.017192
*CAP
1 \$270:1 1.017192
*RES
1 \$270:1 \$270:2 10.182900
2 \$270:1 \$270:3 9.506900
3 \$270:1 \$270:4 8.476300
4 \$270:1 \$270:5 4.216200
5 \$270:1 \$270:6 8.414300
6 \$270:1 \$270:7 4.848000
*END

*D_NET \$271 1.398851
*CAP
1 \$271:1 1.398851
*RES
1 \$271:1 \$271:2 15.829900
2 \$271:1 \$271:3 26.929500
3 \$271:1 \$271:4 13.884900
4 \$271:1 \$271:5 23.112000
5 \$271:1 \$271:6 25.697900
6 \$271:1 \$271:7 29.099300
*END

*D_NET \$275 1.286476
*CAP
1 \$275:1 1.261685
2 \$275:1 ph\[0\]:1 0.003884
3 \$275:1 ph\[1\]:1 0.003884
4 \$275:1 ph\[2\]:1 0.017023
*RES
1 \$275:1 \$275:2 10.605000
2 \$275:1 \$275:3 12.969200
3 \$275:1 \$275:4 12.133900
4 \$275:1 \$275:5 5.666200
5 \$275:1 \$275:6 10.724500
6 \$275:1 \$275:7 3.083300
7 \$275:1 \$275:8 5.666200
*END

*D_NET \$298 0.344697
*CAP
1 \$298:1 0.336578
2 \$298:1 cmp 0.008119
*RES
1 \$298:1 \$298:2 0.567400
2 \$298:1 \$298:3 0.038100
3 \$298:1 \$298:4 0.605500
*END

*D_NET \$299 0.342573
*CAP
1 \$299:1 0.338772
2 \$299:1 _043_:1 0.003801
*RES
1 \$299:1 \$299:2 0.567400
2 \$299:1 \$299:3 0.038100
3 \$299:1 \$299:4 0.605500
*END

*D_NET \$300 0.352157
*CAP
1 \$300:1 0.328868
2 \$300:1 _000_:1 0.003801
3 \$300:1 _001_:1 0.011369
4 \$300:1 _044_:1 0.008119
*RES
1 \$300:1 \$300:2 0.567400
2 \$300:1 \$300:3 0.038100
3 \$300:1 \$300:4 0.605500
*END

*D_NET \$301 0.340704
*CAP
1 \$301:1 0.340704
*RES
1 \$301:1 \$301:2 0.567400
2 \$301:1 \$301:3 0.038100
3 \$301:1 \$301:4 0.605500
*END

*D_NET \$302 0.344697
*CAP
1 \$302:1 0.336578
2 \$302:1 eng9:1 0.008119
*RES
1 \$302:1 \$302:2 0.567400
2 \$302:1 \$302:3 0.038100
3 \$302:1 \$302:4 0.605500
*END

*D_NET \$303 0.344442
*CAP
1 \$303:1 0.336840
2 \$303:1 _037_:1 0.003801
3 \$303:1 eng5:1 0.003801
*RES
1 \$303:1 \$303:2 0.567400
2 \$303:1 \$303:3 0.038100
3 \$303:1 \$303:4 0.605500
*END

*D_NET \$304 0.346039
*CAP
1 \$304:1 0.335190
2 \$304:1 _005_:1 0.007048
3 \$304:1 _006_:1 0.003801
*RES
1 \$304:1 \$304:2 0.567400
2 \$304:1 \$304:3 0.038100
3 \$304:1 \$304:4 0.605500
*END

*D_NET \$305 3.072844
*CAP
1 \$305:1 3.069043
2 \$305:1 clknet_2_0__leaf_clk:1 0.003801
*RES
1 \$305:1 \$305:2 87.702700
2 \$305:1 \$305:3 71.874500
3 \$305:1 \$305:4 28.396700
4 \$305:1 \$305:5 16.171300
5 \$305:1 \$305:6 37.693700
6 \$305:1 \$305:7 38.248800
7 \$305:1 \$305:8 51.646900
8 \$305:1 \$305:9 52.376700
*END

*D_NET \$306 2.464476
*CAP
1 \$306:1 2.442779
2 \$306:1 _009_\[10\]:1 0.006221
3 \$306:1 clknet_2_0__leaf_clk:1 0.007874
4 \$306:1 cmp 0.003801
5 \$306:1 start 0.003801
*RES
1 \$306:1 \$306:2 5.543100
2 \$306:1 \$306:3 11.158400
3 \$306:1 \$306:4 29.823700
4 \$306:1 \$306:5 22.358100
5 \$306:1 \$306:6 22.218400
6 \$306:1 \$306:7 22.454800
*END

*D_NET \$309 3.079115
*CAP
1 \$309:1 3.062562
2 \$309:1 c2_r 0.003801
3 \$309:1 clknet_2_0__leaf_clk:1 0.003801
4 \$309:1 q2:1 0.008951
*RES
1 \$309:1 \$309:2 87.702700
2 \$309:1 \$309:3 71.874500
3 \$309:1 \$309:4 28.396700
4 \$309:1 \$309:5 16.171300
5 \$309:1 \$309:6 37.693700
6 \$309:1 \$309:7 38.248800
7 \$309:1 \$309:8 51.646900
8 \$309:1 \$309:9 52.376700
*END

*D_NET \$310 2.473925
*CAP
1 \$310:1 2.433014
2 \$310:1 _024_:1 0.003801
3 \$310:1 c2_r 0.003801
4 \$310:1 c5_r 0.004944
5 \$310:1 q2:1 0.024564
6 \$310:1 q5:1 0.003801
*RES
1 \$310:1 \$310:2 5.543100
2 \$310:1 \$310:3 11.158400
3 \$310:1 \$310:4 29.823700
4 \$310:1 \$310:5 22.358100
5 \$310:1 \$310:6 22.218400
6 \$310:1 \$310:7 22.454800
*END

*D_NET \$312 3.097045
*CAP
1 \$312:1 3.044032
2 \$312:1 _009_\[1\]:1 0.003801
3 \$312:1 _009_\[2\]:1 0.007603
4 \$312:1 _033_:1 0.003884
5 \$312:1 _061_:1 0.009229
6 \$312:1 clknet_2_2__leaf_clk:1 0.007603
7 \$312:1 ph\[5\]:1 0.003801
8 \$312:1 q8:1 0.003801
9 \$312:1 start 0.013291
*RES
1 \$312:1 \$312:2 87.702700
2 \$312:1 \$312:3 71.874500
3 \$312:1 \$312:4 28.396700
4 \$312:1 \$312:5 16.171300
5 \$312:1 \$312:6 37.693700
6 \$312:1 \$312:7 38.248800
7 \$312:1 \$312:8 51.646900
8 \$312:1 \$312:9 52.376700
*END

*D_NET \$313 2.485712
*CAP
1 \$313:1 2.420831
2 \$313:1 _009_\[1\]:1 0.003801
3 \$313:1 _009_\[3\]:1 0.003801
4 \$313:1 _026_:1 0.003801
5 \$313:1 _033_:1 0.007685
6 \$313:1 _061_:1 0.024564
7 \$313:1 ph\[2\]:1 0.003666
8 \$313:1 ph\[5\]:1 0.013762
9 \$313:1 q9:1 0.003801
*RES
1 \$313:1 \$313:2 5.543100
2 \$313:1 \$313:3 11.158400
3 \$313:1 \$313:4 29.823700
4 \$313:1 \$313:5 22.358100
5 \$313:1 \$313:6 22.218400
6 \$313:1 \$313:7 22.454800
*END

*D_NET \$335 0.988613
*CAP
1 \$335:1 0.979110
2 \$335:1 _009_\[10\]:1 0.005702
3 \$335:1 start 0.003801
*RES
1 \$335:1 \$335:2 14.858900
2 \$335:1 \$335:3 12.392500
3 \$335:1 \$335:4 13.260000
4 \$335:1 \$335:5 6.064300
5 \$335:1 \$335:6 11.965000
6 \$335:1 \$335:7 5.885000
*END

*D_NET \$336 0.884149
*CAP
1 \$336:1 0.872740
2 \$336:1 _009_\[10\]:1 0.003807
3 \$336:1 clknet_2_0__leaf_clk:1 0.003801
4 \$336:1 start 0.003801
*RES
1 \$336:1 \$336:2 10.946100
2 \$336:1 \$336:3 10.670300
3 \$336:1 \$336:4 6.366200
4 \$336:1 \$336:5 6.353500
5 \$336:1 \$336:6 10.633800
6 \$336:1 \$336:7 10.936800
*END

*D_NET \$337 1.023895
*CAP
1 \$337:1 1.010263
2 \$337:1 cmp 0.013632
*RES
1 \$337:1 \$337:2 9.506900
2 \$337:1 \$337:3 10.182900
3 \$337:1 \$337:4 8.476300
4 \$337:1 \$337:5 4.216200
5 \$337:1 \$337:6 8.414300
6 \$337:1 \$337:7 4.848000
*END

*D_NET \$338 1.398851
*CAP
1 \$338:1 1.398851
*RES
1 \$338:1 \$338:2 13.884900
2 \$338:1 \$338:3 25.697900
3 \$338:1 \$338:4 15.829900
4 \$338:1 \$338:5 23.112000
5 \$338:1 \$338:6 26.929500
6 \$338:1 \$338:7 29.099300
*END

*D_NET \$340 0.350804
*CAP
1 \$340:1 0.330266
2 \$340:1 _036_:1 0.009689
3 \$340:1 _043_:1 0.010849
*RES
1 \$340:1 \$340:2 0.567400
2 \$340:1 \$340:3 0.038100
3 \$340:1 \$340:4 0.605500
*END

*D_NET \$342 0.349207
*CAP
1 \$342:1 0.331916
2 \$342:1 _000_:1 0.003801
3 \$342:1 _001_:1 0.003801
4 \$342:1 _042_:1 0.009689
*RES
1 \$342:1 \$342:2 0.567400
2 \$342:1 \$342:3 0.038100
3 \$342:1 \$342:4 0.605500
*END

*D_NET \$343 2.588128
*CAP
1 \$343:1 2.577521
2 \$343:1 clknet_0_clk:1 0.004988
3 \$343:1 eng4:1 0.005619
*RES
1 \$343:1 \$343:2 20.949700
2 \$343:1 \$343:3 12.954000
3 \$343:1 \$343:4 13.190700
4 \$343:1 \$343:5 31.420500
5 \$343:1 \$343:6 31.909200
6 \$343:1 \$343:7 21.388300
7 \$343:1 \$343:8 13.190700
8 \$343:1 \$343:9 12.954000
9 \$343:1 \$343:10 21.388300
10 \$343:1 \$343:11 31.909200
11 \$343:1 \$343:12 31.420500
12 \$343:1 \$343:13 20.949700
*END

*D_NET \$344 0.967085
*CAP
1 \$344:1 0.959400
2 \$344:1 mode 0.007685
*RES
1 \$344:1 \$344:2 10.277200
2 \$344:1 \$344:3 13.825400
3 \$344:1 \$344:4 12.259000
4 \$344:1 \$344:5 7.539600
5 \$344:1 \$344:6 11.230200
*END

*D_NET \$346 0.969036
*CAP
1 \$346:1 0.957384
2 \$346:1 eng8:1 0.003884
3 \$346:1 q1:1 0.003884
4 \$346:1 q8:1 0.003884
*RES
1 \$346:1 \$346:2 10.277200
2 \$346:1 \$346:3 13.825400
3 \$346:1 \$346:4 12.259000
4 \$346:1 \$346:5 7.539600
5 \$346:1 \$346:6 11.230200
*END

*D_NET \$348 0.965216
*CAP
1 \$348:1 0.961332
2 \$348:1 q9:1 0.003884
*RES
1 \$348:1 \$348:2 10.277200
2 \$348:1 \$348:3 13.825400
3 \$348:1 \$348:4 12.259000
4 \$348:1 \$348:5 7.539600
5 \$348:1 \$348:6 11.230200
*END

*D_NET \$349 0.997034
*CAP
1 \$349:1 0.970407
2 \$349:1 c2_r 0.022826
3 \$349:1 q5:1 0.003801
*RES
1 \$349:1 \$349:2 14.858900
2 \$349:1 \$349:3 12.392500
3 \$349:1 \$349:4 13.260000
4 \$349:1 \$349:5 6.064300
5 \$349:1 \$349:6 11.965000
6 \$349:1 \$349:7 5.885000
*END

*D_NET \$350 0.880408
*CAP
1 \$350:1 0.876607
2 \$350:1 q5:1 0.003801
*RES
1 \$350:1 \$350:2 10.946100
2 \$350:1 \$350:3 10.670300
3 \$350:1 \$350:4 6.366200
4 \$350:1 \$350:5 6.353500
5 \$350:1 \$350:6 10.633800
6 \$350:1 \$350:7 10.936800
*END

*D_NET \$351 1.021012
*CAP
1 \$351:1 1.013244
2 \$351:1 c2_r 0.003884
3 \$351:1 eng8:1 0.003884
*RES
1 \$351:1 \$351:2 9.506900
2 \$351:1 \$351:3 10.182900
3 \$351:1 \$351:4 8.476300
4 \$351:1 \$351:5 4.216200
5 \$351:1 \$351:6 8.414300
6 \$351:1 \$351:7 4.848000
*END

*D_NET \$352 1.401588
*CAP
1 \$352:1 1.396022
2 \$352:1 c2_r 0.001765
3 \$352:1 eng8:1 0.003801
*RES
1 \$352:1 \$352:2 13.884900
2 \$352:1 \$352:3 25.697900
3 \$352:1 \$352:4 15.829900
4 \$352:1 \$352:5 23.112000
5 \$352:1 \$352:6 26.929500
6 \$352:1 \$352:7 29.099300
*END

*D_NET \$354 0.347338
*CAP
1 \$354:1 0.333848
2 \$354:1 _005_:1 0.003801
3 \$354:1 _038_:1 0.009689
*RES
1 \$354:1 \$354:2 0.567400
2 \$354:1 \$354:3 0.038100
3 \$354:1 \$354:4 0.605500
*END

*D_NET \$358 0.998035
*CAP
1 \$358:1 0.969372
2 \$358:1 _009_\[1\]:1 0.022826
3 \$358:1 _009_\[3\]:1 0.002036
4 \$358:1 ph\[5\]:1 0.003801
*RES
1 \$358:1 \$358:2 14.858900
2 \$358:1 \$358:3 12.392500
3 \$358:1 \$358:4 13.260000
4 \$358:1 \$358:5 6.064300
5 \$358:1 \$358:6 11.965000
6 \$358:1 \$358:7 5.885000
*END

*D_NET \$359 0.880408
*CAP
1 \$359:1 0.876607
2 \$359:1 _009_\[3\]:1 0.003801
*RES
1 \$359:1 \$359:2 10.946100
2 \$359:1 \$359:3 10.670300
3 \$359:1 \$359:4 6.366200
4 \$359:1 \$359:5 6.353500
5 \$359:1 \$359:6 10.633800
6 \$359:1 \$359:7 10.936800
*END

*D_NET \$360 1.028057
*CAP
1 \$360:1 1.005963
2 \$360:1 ph\[2\]:1 0.003884
3 \$360:1 ph\[3\]:1 0.003884
4 \$360:1 q8:1 0.000694
5 \$360:1 q9:1 0.013632
*RES
1 \$360:1 \$360:2 9.506900
2 \$360:1 \$360:3 10.182900
3 \$360:1 \$360:4 8.476300
4 \$360:1 \$360:5 4.216200
5 \$360:1 \$360:6 8.414300
6 \$360:1 \$360:7 4.848000
*END

*D_NET \$361 1.405352
*CAP
1 \$361:1 1.392131
2 \$361:1 ph\[3\]:1 0.003801
3 \$361:1 q8:1 0.003801
4 \$361:1 start 0.005619
*RES
1 \$361:1 \$361:2 13.884900
2 \$361:1 \$361:3 25.697900
3 \$361:1 \$361:4 15.829900
4 \$361:1 \$361:5 23.112000
5 \$361:1 \$361:6 26.929500
6 \$361:1 \$361:7 29.099300
*END

*D_NET \$37 3.074713
*CAP
1 \$37:1 3.067111
2 \$37:1 _009_\[11\]:1 0.003801
3 \$37:1 clknet_2_0__leaf_clk:1 0.003801
*RES
1 \$37:1 \$37:2 52.376700
2 \$37:1 \$37:3 51.646900
3 \$37:1 \$37:4 38.248800
4 \$37:1 \$37:5 37.693700
5 \$37:1 \$37:6 16.171300
6 \$37:1 \$37:7 28.396700
7 \$37:1 \$37:8 71.874500
8 \$37:1 \$37:9 87.702700
*END

*D_NET \$387 2.461887
*CAP
1 \$387:1 2.445457
2 \$387:1 _046_:1 0.004944
3 \$387:1 cmp 0.007685
4 \$387:1 ph\[11\]:1 0.003801
*RES
1 \$387:1 \$387:2 29.823700
2 \$387:1 \$387:3 22.358100
3 \$387:1 \$387:4 5.543100
4 \$387:1 \$387:5 11.158400
5 \$387:1 \$387:6 22.218400
6 \$387:1 \$387:7 22.454800
*END

*D_NET \$388 2.470024
*CAP
1 \$388:1 2.437046
2 \$388:1 _000_:1 0.017502
3 \$388:1 clknet_0_clk:1 0.007874
4 \$388:1 eng4:1 0.003801
5 \$388:1 ph\[13\]:1 0.003801
*RES
1 \$388:1 \$388:2 29.823700
2 \$388:1 \$388:3 22.358100
3 \$388:1 \$388:4 5.543100
4 \$388:1 \$388:5 11.158400
5 \$388:1 \$388:6 22.218400
6 \$388:1 \$388:7 22.454800
*END

*D_NET \$389 1.210469
*CAP
1 \$389:1 1.198982
2 \$389:1 c0_r 0.011487
*RES
1 \$389:1 \$389:2 21.558900
2 \$389:1 \$389:3 25.239000
3 \$389:1 \$389:4 20.342600
4 \$389:1 \$389:5 17.533700
*END

*D_NET \$39 2.453807
*CAP
1 \$39:1 2.453807
*RES
1 \$39:1 \$39:2 22.454800
2 \$39:1 \$39:3 22.218400
3 \$39:1 \$39:4 11.158400
4 \$39:1 \$39:5 5.543100
5 \$39:1 \$39:6 22.358100
6 \$39:1 \$39:7 29.823700
*END

*D_NET \$392 1.206689
*CAP
1 \$392:1 1.202888
2 \$392:1 clknet_2_0__leaf_clk:1 0.003801
*RES
1 \$392:1 \$392:2 20.342600
2 \$392:1 \$392:3 25.239000
3 \$392:1 \$392:4 21.558900
4 \$392:1 \$392:5 17.533700
*END

*D_NET \$393 1.208558
*CAP
1 \$393:1 1.200956
2 \$393:1 c2_r 0.003801
3 \$393:1 q5:1 0.003801
*RES
1 \$393:1 \$393:2 20.342600
2 \$393:1 \$393:3 25.239000
3 \$393:1 \$393:4 21.558900
4 \$393:1 \$393:5 17.533700
*END

*D_NET \$394 2.470610
*CAP
1 \$394:1 2.436440
2 \$394:1 eng5:1 0.022902
3 \$394:1 q1:1 0.003801
4 \$394:1 q6:1 0.003666
5 \$394:1 q7:1 0.003801
*RES
1 \$394:1 \$394:2 29.823700
2 \$394:1 \$394:3 22.358100
3 \$394:1 \$394:4 5.543100
4 \$394:1 \$394:5 11.158400
5 \$394:1 \$394:6 22.218400
6 \$394:1 \$394:7 22.454800
*END

*D_NET \$395 2.479020
*CAP
1 \$395:1 2.427748
2 \$395:1 _004_:1 0.003918
3 \$395:1 _040_:1 0.013762
4 \$395:1 _041_:1 0.007874
5 \$395:1 _052_:1 0.004958
6 \$395:1 eng9:1 0.003801
7 \$395:1 ph[15] 0.003801
8 \$395:1 q5:1 0.009357
9 \$395:1 q7:1 0.003801
*RES
1 \$395:1 \$395:2 29.823700
2 \$395:1 \$395:3 22.358100
3 \$395:1 \$395:4 5.543100
4 \$395:1 \$395:5 11.158400
5 \$395:1 \$395:6 22.218400
6 \$395:1 \$395:7 22.454800
*END

*D_NET \$396 2.467688
*CAP
1 \$396:1 2.439461
2 \$396:1 _009_\[6\]:1 0.003801
3 \$396:1 _050_:1 0.003801
4 \$396:1 _051_:1 0.003666
5 \$396:1 _052_:1 0.003801
6 \$396:1 clknet_2_2__leaf_clk:1 0.009357
7 \$396:1 start 0.003801
*RES
1 \$396:1 \$396:2 29.823700
2 \$396:1 \$396:3 22.358100
3 \$396:1 \$396:4 5.543100
4 \$396:1 \$396:5 11.158400
5 \$396:1 \$396:6 22.218400
6 \$396:1 \$396:7 22.454800
*END

*D_NET \$397 2.488470
*CAP
1 \$397:1 2.417981
2 \$397:1 _009_\[1\]:1 0.003801
3 \$397:1 _009_\[2\]:1 0.024564
4 \$397:1 _009_\[3\]:1 0.003801
5 \$397:1 _026_:1 0.003801
6 \$397:1 _033_:1 0.003801
7 \$397:1 _061_:1 0.013762
8 \$397:1 clknet_2_2__leaf_clk:1 0.003801
9 \$397:1 ph\[5\]:1 0.003801
10 \$397:1 start 0.009357
*RES
1 \$397:1 \$397:2 29.823700
2 \$397:1 \$397:3 22.358100
3 \$397:1 \$397:4 5.543100
4 \$397:1 \$397:5 11.158400
5 \$397:1 \$397:6 22.218400
6 \$397:1 \$397:7 22.454800
*END

*D_NET \$41 0.983940
*CAP
1 \$41:1 0.983940
*RES
1 \$41:1 \$41:2 14.858900
2 \$41:1 \$41:3 12.392500
3 \$41:1 \$41:4 5.885000
4 \$41:1 \$41:5 11.965000
5 \$41:1 \$41:6 6.064300
6 \$41:1 \$41:7 13.260000
*END

*D_NET \$414 0.878539
*CAP
1 \$414:1 0.878539
*RES
1 \$414:1 \$414:2 10.670300
2 \$414:1 \$414:3 10.946100
3 \$414:1 \$414:4 6.353500
4 \$414:1 \$414:5 10.633800
5 \$414:1 \$414:6 6.366200
6 \$414:1 \$414:7 10.936800
*END

*D_NET \$415 1.025805
*CAP
1 \$415:1 1.008289
2 \$415:1 _057_:1 0.003884
3 \$415:1 ph\[11\]:1 0.013632
*RES
1 \$415:1 \$415:2 10.182900
2 \$415:1 \$415:3 9.506900
3 \$415:1 \$415:4 8.476300
4 \$415:1 \$415:5 4.216200
5 \$415:1 \$415:6 8.414300
6 \$415:1 \$415:7 4.848000
*END

*D_NET \$416 1.400720
*CAP
1 \$416:1 1.396919
2 \$416:1 _057_:1 0.003801
*RES
1 \$416:1 \$416:2 15.829900
2 \$416:1 \$416:3 26.929500
3 \$416:1 \$416:4 13.884900
4 \$416:1 \$416:5 23.112000
5 \$416:1 \$416:6 25.697900
6 \$416:1 \$416:7 29.099300
*END

*D_NET \$418 0.882277
*CAP
1 \$418:1 0.874675
2 \$418:1 clknet_0_clk:1 0.003801
3 \$418:1 ph\[13\]:1 0.003801
*RES
1 \$418:1 \$418:2 10.670300
2 \$418:1 \$418:3 10.946100
3 \$418:1 \$418:4 6.353500
4 \$418:1 \$418:5 10.633800
5 \$418:1 \$418:6 6.366200
6 \$418:1 \$418:7 10.936800
*END

*D_NET \$419 1.023895
*CAP
1 \$419:1 1.010263
2 \$419:1 eng4:1 0.013632
*RES
1 \$419:1 \$419:2 10.182900
2 \$419:1 \$419:3 9.506900
3 \$419:1 \$419:4 8.476300
4 \$419:1 \$419:5 4.216200
5 \$419:1 \$419:6 8.414300
6 \$419:1 \$419:7 4.848000
*END

*D_NET \$42 0.878539
*CAP
1 \$42:1 0.878539
*RES
1 \$42:1 \$42:2 10.946100
2 \$42:1 \$42:3 10.670300
3 \$42:1 \$42:4 10.633800
4 \$42:1 \$42:5 6.353500
5 \$42:1 \$42:6 10.936800
6 \$42:1 \$42:7 6.366200
*END

*D_NET \$420 1.399719
*CAP
1 \$420:1 1.397954
2 \$420:1 clknet_2_0__leaf_clk:1 0.001765
*RES
1 \$420:1 \$420:2 15.829900
2 \$420:1 \$420:3 26.929500
3 \$420:1 \$420:4 13.884900
4 \$420:1 \$420:5 23.112000
5 \$420:1 \$420:6 25.697900
6 \$420:1 \$420:7 29.099300
*END

*D_NET \$422 1.094231
*CAP
1 \$422:1 1.082662
2 \$422:1 q0:1 0.003801
3 \$422:1 q4:1 0.007768
*RES
1 \$422:1 \$422:2 11.670100
2 \$422:1 \$422:3 10.976900
3 \$422:1 \$422:4 10.527400
4 \$422:1 \$422:5 7.453900
5 \$422:1 \$422:6 10.031200
6 \$422:1 \$422:7 6.802500
*END

*D_NET \$423 0.967085
*CAP
1 \$423:1 0.959400
2 \$423:1 c0_r 0.003801
3 \$423:1 q3:1 0.003884
*RES
1 \$423:1 \$423:2 10.277200
2 \$423:1 \$423:3 12.259000
3 \$423:1 \$423:4 13.825400
4 \$423:1 \$423:5 11.230200
5 \$423:1 \$423:6 7.539600
*END

*D_NET \$426 1.091227
*CAP
1 \$426:1 1.085767
2 \$426:1 ph\[14\]:1 0.001493
3 \$426:1 q9:1 0.003967
*RES
1 \$426:1 \$426:2 10.976900
2 \$426:1 \$426:3 11.670100
3 \$426:1 \$426:4 7.453900
4 \$426:1 \$426:5 10.527400
5 \$426:1 \$426:6 6.802500
6 \$426:1 \$426:7 10.031200
*END

*D_NET \$428 1.093793
*CAP
1 \$428:1 1.083115
2 \$428:1 _024_:1 0.002910
3 \$428:1 ph\[14\]:1 0.003801
4 \$428:1 q2:1 0.003967
*RES
1 \$428:1 \$428:2 10.976900
2 \$428:1 \$428:3 11.670100
3 \$428:1 \$428:4 7.453900
4 \$428:1 \$428:5 10.527400
5 \$428:1 \$428:6 6.802500
6 \$428:1 \$428:7 10.031200
*END

*D_NET \$429 0.882277
*CAP
1 \$429:1 0.874675
2 \$429:1 q1:1 0.003801
3 \$429:1 q7:1 0.003801
*RES
1 \$429:1 \$429:2 10.670300
2 \$429:1 \$429:3 10.946100
3 \$429:1 \$429:4 6.353500
4 \$429:1 \$429:5 10.633800
5 \$429:1 \$429:6 6.366200
6 \$429:1 \$429:7 10.936800
*END

*D_NET \$43 1.017192
*CAP
1 \$43:1 1.017192
*RES
1 \$43:1 \$43:2 9.506900
2 \$43:1 \$43:3 10.182900
3 \$43:1 \$43:4 4.216200
4 \$43:1 \$43:5 8.476300
5 \$43:1 \$43:6 4.848000
6 \$43:1 \$43:7 8.414300
*END

*D_NET \$430 1.019102
*CAP
1 \$430:1 1.015218
2 \$430:1 q6:1 0.003884
*RES
1 \$430:1 \$430:2 10.182900
2 \$430:1 \$430:3 9.506900
3 \$430:1 \$430:4 8.476300
4 \$430:1 \$430:5 4.216200
5 \$430:1 \$430:6 8.414300
6 \$430:1 \$430:7 4.848000
*END

*D_NET \$431 1.398851
*CAP
1 \$431:1 1.398851
*RES
1 \$431:1 \$431:2 15.829900
2 \$431:1 \$431:3 26.929500
3 \$431:1 \$431:4 13.884900
4 \$431:1 \$431:5 23.112000
5 \$431:1 \$431:6 25.697900
6 \$431:1 \$431:7 29.099300
*END

*D_NET \$432 0.884146
*CAP
1 \$432:1 0.872743
2 \$432:1 _041_:1 0.003801
3 \$432:1 eng9:1 0.003801
4 \$432:1 ph[15] 0.003801
*RES
1 \$432:1 \$432:2 10.670300
2 \$432:1 \$432:3 10.946100
3 \$432:1 \$432:4 6.353500
4 \$432:1 \$432:5 10.633800
5 \$432:1 \$432:6 6.366200
6 \$432:1 \$432:7 10.936800
*END

*D_NET \$433 1.019102
*CAP
1 \$433:1 1.015218
2 \$433:1 eng5:1 0.003884
*RES
1 \$433:1 \$433:2 10.182900
2 \$433:1 \$433:3 9.506900
3 \$433:1 \$433:4 8.476300
4 \$433:1 \$433:5 4.216200
5 \$433:1 \$433:6 8.414300
6 \$433:1 \$433:7 4.848000
*END

*D_NET \$434 1.403217
*CAP
1 \$434:1 1.394339
2 \$434:1 eng5:1 0.001765
3 \$434:1 eng9:1 0.007113
*RES
1 \$434:1 \$434:2 15.829900
2 \$434:1 \$434:3 26.929500
3 \$434:1 \$434:4 13.884900
4 \$434:1 \$434:5 23.112000
5 \$434:1 \$434:6 25.697900
6 \$434:1 \$434:7 29.099300
*END

*D_NET \$436 0.880408
*CAP
1 \$436:1 0.876607
2 \$436:1 _050_:1 0.003801
*RES
1 \$436:1 \$436:2 10.670300
2 \$436:1 \$436:3 10.946100
3 \$436:1 \$436:4 6.353500
4 \$436:1 \$436:5 10.633800
5 \$436:1 \$436:6 6.366200
6 \$436:1 \$436:7 10.936800
*END

*D_NET \$437 1.021353
*CAP
1 \$437:1 1.012891
2 \$437:1 _051_:1 0.003884
3 \$437:1 clknet_2_2__leaf_clk:1 0.000694
4 \$437:1 eng7:1 0.003884
*RES
1 \$437:1 \$437:2 10.182900
2 \$437:1 \$437:3 9.506900
3 \$437:1 \$437:4 8.476300
4 \$437:1 \$437:5 4.216200
5 \$437:1 \$437:6 8.414300
6 \$437:1 \$437:7 4.848000
*END

*D_NET \$438 1.401588
*CAP
1 \$438:1 1.396022
2 \$438:1 clknet_2_2__leaf_clk:1 0.003801
3 \$438:1 eng7:1 0.001765
*RES
1 \$438:1 \$438:2 15.829900
2 \$438:1 \$438:3 26.929500
3 \$438:1 \$438:4 13.884900
4 \$438:1 \$438:5 23.112000
5 \$438:1 \$438:6 25.697900
6 \$438:1 \$438:7 29.099300
*END

*D_NET \$439 0.884146
*CAP
1 \$439:1 0.872743
2 \$439:1 _009_\[1\]:1 0.003801
3 \$439:1 _026_:1 0.003801
4 \$439:1 ph\[5\]:1 0.003801
*RES
1 \$439:1 \$439:2 10.670300
2 \$439:1 \$439:3 10.946100
3 \$439:1 \$439:4 6.353500
4 \$439:1 \$439:5 10.633800
5 \$439:1 \$439:6 6.366200
6 \$439:1 \$439:7 10.936800
*END

*D_NET \$44 1.398851
*CAP
1 \$44:1 1.398851
*RES
1 \$44:1 \$44:2 29.099300
2 \$44:1 \$44:3 25.697900
3 \$44:1 \$44:4 23.112000
4 \$44:1 \$44:5 13.884900
5 \$44:1 \$44:6 15.829900
6 \$44:1 \$44:7 26.929500
*END

*D_NET \$440 1.026147
*CAP
1 \$440:1 1.007937
2 \$440:1 _009_\[3\]:1 0.013632
3 \$440:1 ph\[2\]:1 0.000694
4 \$440:1 q9:1 0.003884
*RES
1 \$440:1 \$440:2 10.182900
2 \$440:1 \$440:3 9.506900
3 \$440:1 \$440:4 8.476300
4 \$440:1 \$440:5 4.216200
5 \$440:1 \$440:6 8.414300
6 \$440:1 \$440:7 4.848000
*END

*D_NET \$441 1.405352
*CAP
1 \$441:1 1.392131
2 \$441:1 ph\[2\]:1 0.003801
3 \$441:1 ph\[3\]:1 0.005619
4 \$441:1 q9:1 0.003801
*RES
1 \$441:1 \$441:2 15.829900
2 \$441:1 \$441:3 26.929500
3 \$441:1 \$441:4 13.884900
4 \$441:1 \$441:5 23.112000
5 \$441:1 \$441:6 25.697900
6 \$441:1 \$441:7 29.099300
*END

*D_NET \$444 3.083159
*CAP
1 \$444:1 3.058382
2 \$444:1 _017_:1 0.003801
3 \$444:1 clknet_2_0__leaf_clk:1 0.003801
4 \$444:1 cmp 0.003884
5 \$444:1 start 0.013291
*RES
1 \$444:1 \$444:2 87.702700
2 \$444:1 \$444:3 71.874500
3 \$444:1 \$444:4 28.396700
4 \$444:1 \$444:5 16.171300
5 \$444:1 \$444:6 37.693700
6 \$444:1 \$444:7 38.248800
7 \$444:1 \$444:8 51.646900
8 \$444:1 \$444:9 52.376700
*END

*D_NET \$446 0.983940
*CAP
1 \$446:1 0.983940
*RES
1 \$446:1 \$446:2 12.392500
2 \$446:1 \$446:3 14.858900
3 \$446:1 \$446:4 11.965000
4 \$446:1 \$446:5 5.885000
5 \$446:1 \$446:6 13.260000
6 \$446:1 \$446:7 6.064300
*END

*D_NET \$447 3.079543
*CAP
1 \$447:1 3.062120
2 \$447:1 _003_:1 0.013291
3 \$447:1 clknet_2_0__leaf_clk:1 0.004132
*RES
1 \$447:1 \$447:2 87.702700
2 \$447:1 \$447:3 71.874500
3 \$447:1 \$447:4 28.396700
4 \$447:1 \$447:5 16.171300
5 \$447:1 \$447:6 37.693700
6 \$447:1 \$447:7 38.248800
7 \$447:1 \$447:8 51.646900
8 \$447:1 \$447:9 52.376700
*END

*D_NET \$448 0.985809
*CAP
1 \$448:1 0.982008
2 \$448:1 ph\[13\]:1 0.003801
*RES
1 \$448:1 \$448:2 12.392500
2 \$448:1 \$448:3 14.858900
3 \$448:1 \$448:4 11.965000
4 \$448:1 \$448:5 5.885000
5 \$448:1 \$448:6 13.260000
6 \$448:1 \$448:7 6.064300
*END

*D_NET \$450 3.071205
*CAP
1 \$450:1 3.070738
2 \$450:1 _015_:1 0.000136
3 \$450:1 clknet_2_2__leaf_clk:1 0.000331
*RES
1 \$450:1 \$450:2 87.702700
2 \$450:1 \$450:3 71.874500
3 \$450:1 \$450:4 28.396700
4 \$450:1 \$450:5 16.171300
5 \$450:1 \$450:6 37.693700
6 \$450:1 \$450:7 38.248800
7 \$450:1 \$450:8 51.646900
8 \$450:1 \$450:9 52.376700
*END

*D_NET \$452 0.995181
*CAP
1 \$452:1 0.972321
2 \$452:1 _015_:1 0.017023
3 \$452:1 q1:1 0.002036
4 \$452:1 q7:1 0.003801
*RES
1 \$452:1 \$452:2 12.392500
2 \$452:1 \$452:3 14.858900
3 \$452:1 \$452:4 11.965000
4 \$452:1 \$452:5 5.885000
5 \$452:1 \$452:6 13.260000
6 \$452:1 \$452:7 6.064300
*END

*D_NET \$453 3.088057
*CAP
1 \$453:1 3.053320
2 \$453:1 _004_:1 0.008951
3 \$453:1 _037_:1 0.008400
4 \$453:1 _040_:1 0.003636
5 \$453:1 _052_:1 0.003884
6 \$453:1 clknet_2_2__leaf_clk:1 0.000331
7 \$453:1 q5:1 0.005734
8 \$453:1 q7:1 0.003801
*RES
1 \$453:1 \$453:2 87.702700
2 \$453:1 \$453:3 71.874500
3 \$453:1 \$453:4 28.396700
4 \$453:1 \$453:5 16.171300
5 \$453:1 \$453:6 37.693700
6 \$453:1 \$453:7 38.248800
7 \$453:1 \$453:8 51.646900
8 \$453:1 \$453:9 52.376700
*END

*D_NET \$455 1.000772
*CAP
1 \$455:1 0.966543
2 \$455:1 _040_:1 0.003801
3 \$455:1 eng9:1 0.003801
4 \$455:1 ph[15] 0.003801
5 \$455:1 q7:1 0.022826
*RES
1 \$455:1 \$455:2 12.392500
2 \$455:1 \$455:3 14.858900
3 \$455:1 \$455:4 11.965000
4 \$455:1 \$455:5 5.885000
5 \$455:1 \$455:6 13.260000
6 \$455:1 \$455:7 6.064300
*END

*D_NET \$456 3.086398
*CAP
1 \$456:1 3.055036
2 \$456:1 _006_:1 0.013291
3 \$456:1 clknet_2_2__leaf_clk:1 0.005734
4 \$456:1 clknet_2_3__leaf_clk:1 0.003801
5 \$456:1 ph\[13\]:1 0.008400
6 \$456:1 start 0.000136
*RES
1 \$456:1 \$456:2 87.702700
2 \$456:1 \$456:3 71.874500
3 \$456:1 \$456:4 28.396700
4 \$456:1 \$456:5 16.171300
5 \$456:1 \$456:6 37.693700
6 \$456:1 \$456:7 38.248800
7 \$456:1 \$456:8 51.646900
8 \$456:1 \$456:9 52.376700
*END

*D_NET \$457 0.992174
*CAP
1 \$457:1 0.975429
2 \$457:1 _050_:1 0.002036
3 \$457:1 _052_:1 0.010908
4 \$457:1 start 0.003801
*RES
1 \$457:1 \$457:2 12.392500
2 \$457:1 \$457:3 14.858900
3 \$457:1 \$457:4 11.965000
4 \$457:1 \$457:5 5.885000
5 \$457:1 \$457:6 13.260000
6 \$457:1 \$457:7 6.064300
*END

*D_NET \$458 3.086653
*CAP
1 \$458:1 3.054771
2 \$458:1 _009_\[2\]:1 0.008951
3 \$458:1 _022_:1 0.003801
4 \$458:1 _033_:1 0.003801
5 \$458:1 _052_:1 0.005463
6 \$458:1 _061_:1 0.003801
7 \$458:1 clknet_2_2__leaf_clk:1 0.000331
8 \$458:1 start 0.005734
*RES
1 \$458:1 \$458:2 87.702700
2 \$458:1 \$458:3 71.874500
3 \$458:1 \$458:4 28.396700
4 \$458:1 \$458:5 16.171300
5 \$458:1 \$458:6 37.693700
6 \$458:1 \$458:7 38.248800
7 \$458:1 \$458:8 51.646900
8 \$458:1 \$458:9 52.376700
*END

*D_NET \$46 3.074892
*CAP
1 \$46:1 3.066928
2 \$46:1 clknet_2_0__leaf_clk:1 0.007964
*RES
1 \$46:1 \$46:2 87.702700
2 \$46:1 \$46:3 71.874500
3 \$46:1 \$46:4 28.396700
4 \$46:1 \$46:5 16.171300
5 \$46:1 \$46:6 37.693700
6 \$46:1 \$46:7 38.248800
7 \$46:1 \$46:8 51.646900
8 \$46:1 \$46:9 52.376700
*END

*D_NET \$460 1.001773
*CAP
1 \$460:1 0.965508
2 \$460:1 _009_\[1\]:1 0.003801
3 \$460:1 _026_:1 0.003801
4 \$460:1 _033_:1 0.022826
5 \$460:1 _061_:1 0.003801
6 \$460:1 ph\[5\]:1 0.002036
*RES
1 \$460:1 \$460:2 12.392500
2 \$460:1 \$460:3 14.858900
3 \$460:1 \$460:4 11.965000
4 \$460:1 \$460:5 5.885000
5 \$460:1 \$460:6 13.260000
6 \$460:1 \$460:7 6.064300
*END

*D_NET \$47 2.453807
*CAP
1 \$47:1 2.453807
*RES
1 \$47:1 \$47:2 29.823700
2 \$47:1 \$47:3 22.358100
3 \$47:1 \$47:4 5.543100
4 \$47:1 \$47:5 11.158400
5 \$47:1 \$47:6 22.218400
6 \$47:1 \$47:7 22.454800
*END

*D_NET \$487 0.342573
*CAP
1 \$487:1 0.338772
2 \$487:1 cmp 0.003801
*RES
1 \$487:1 \$487:2 0.567400
2 \$487:1 \$487:3 0.038100
3 \$487:1 \$487:4 0.605500
*END

*D_NET \$488 0.343467
*CAP
1 \$488:1 0.337848
2 \$488:1 cmp 0.005619
*RES
1 \$488:1 \$488:2 0.567400
2 \$488:1 \$488:3 0.038100
3 \$488:1 \$488:4 0.605500
*END

*D_NET \$49 0.998271
*CAP
1 \$49:1 0.969129
2 \$49:1 _001_:1 0.029142
*RES
1 \$49:1 \$49:2 12.392500
2 \$49:1 \$49:3 14.858900
3 \$49:1 \$49:4 11.965000
4 \$49:1 \$49:5 5.885000
5 \$49:1 \$49:6 13.260000
6 \$49:1 \$49:7 6.064300
*END

*D_NET \$492 3.084831
*CAP
1 \$492:1 3.056655
2 \$492:1 _003_:1 0.003801
3 \$492:1 _043_:1 0.003884
4 \$492:1 _048_:1 0.008951
5 \$492:1 clknet_2_0__leaf_clk:1 0.003937
6 \$492:1 ph\[12\]:1 0.007603
*RES
1 \$492:1 \$492:2 87.702700
2 \$492:1 \$492:3 71.874500
3 \$492:1 \$492:4 28.396700
4 \$492:1 \$492:5 16.171300
5 \$492:1 \$492:6 37.693700
6 \$492:1 \$492:7 38.248800
7 \$492:1 \$492:8 51.646900
8 \$492:1 \$492:9 52.376700
*END

*D_NET \$493 2.471535
*CAP
1 \$493:1 2.435485
2 \$493:1 _043_:1 0.007685
3 \$493:1 _048_:1 0.024564
4 \$493:1 clknet_2_0__leaf_clk:1 0.003801
*RES
1 \$493:1 \$493:2 5.543100
2 \$493:1 \$493:3 11.158400
3 \$493:1 \$493:4 29.823700
4 \$493:1 \$493:5 22.358100
5 \$493:1 \$493:6 22.218400
6 \$493:1 \$493:7 22.454800
*END

*D_NET \$494 2.582912
*CAP
1 \$494:1 2.582912
*RES
1 \$494:1 \$494:2 20.949700
2 \$494:1 \$494:3 13.190700
3 \$494:1 \$494:4 12.954000
4 \$494:1 \$494:5 31.420500
5 \$494:1 \$494:6 31.909200
6 \$494:1 \$494:7 12.954000
7 \$494:1 \$494:8 13.190700
8 \$494:1 \$494:9 21.388300
9 \$494:1 \$494:10 31.909200
10 \$494:1 \$494:11 21.388300
11 \$494:1 \$494:12 31.420500
12 \$494:1 \$494:13 20.949700
*END

*D_NET \$496 3.081113
*CAP
1 \$496:1 3.060498
2 \$496:1 clknet_2_1__leaf_clk:1 0.005327
3 \$496:1 ph\[14\]:1 0.003801
4 \$496:1 q0:1 0.007603
5 \$496:1 q4:1 0.003884
*RES
1 \$496:1 \$496:2 87.702700
2 \$496:1 \$496:3 71.874500
3 \$496:1 \$496:4 28.396700
4 \$496:1 \$496:5 16.171300
5 \$496:1 \$496:6 37.693700
6 \$496:1 \$496:7 38.248800
7 \$496:1 \$496:8 51.646900
8 \$496:1 \$496:9 52.376700
*END

*D_NET \$497 2.473565
*CAP
1 \$497:1 2.433386
2 \$497:1 _023_:1 0.007908
3 \$497:1 c0_r 0.007874
4 \$497:1 ph\[14\]:1 0.003801
5 \$497:1 q3:1 0.003801
6 \$497:1 q4:1 0.016795
*RES
1 \$497:1 \$497:2 5.543100
2 \$497:1 \$497:3 11.158400
3 \$497:1 \$497:4 29.823700
4 \$497:1 \$497:5 22.358100
5 \$497:1 \$497:6 22.218400
6 \$497:1 \$497:7 22.454800
*END

*D_NET \$498 3.085718
*CAP
1 \$498:1 3.055738
2 \$498:1 _007_:1 0.003801
3 \$498:1 _016_:1 0.008951
4 \$498:1 clknet_2_0__leaf_clk:1 0.003801
5 \$498:1 ph\[14\]:1 0.013427
*RES
1 \$498:1 \$498:2 87.702700
2 \$498:1 \$498:3 71.874500
3 \$498:1 \$498:4 28.396700
4 \$498:1 \$498:5 16.171300
5 \$498:1 \$498:6 37.693700
6 \$498:1 \$498:7 38.248800
7 \$498:1 \$498:8 51.646900
8 \$498:1 \$498:9 52.376700
*END

*D_NET \$50 0.878539
*CAP
1 \$50:1 0.878539
*RES
1 \$50:1 \$50:2 10.670300
2 \$50:1 \$50:3 10.946100
3 \$50:1 \$50:4 6.353500
4 \$50:1 \$50:5 10.633800
5 \$50:1 \$50:6 6.366200
6 \$50:1 \$50:7 10.936800
*END

*D_NET \$500 2.472056
*CAP
1 \$500:1 2.434946
2 \$500:1 _016_:1 0.024564
3 \$500:1 _024_:1 0.003801
4 \$500:1 ph\[14\]:1 0.003801
5 \$500:1 q5:1 0.004944
*RES
1 \$500:1 \$500:2 5.543100
2 \$500:1 \$500:3 11.158400
3 \$500:1 \$500:4 29.823700
4 \$500:1 \$500:5 22.358100
5 \$500:1 \$500:6 22.218400
6 \$500:1 \$500:7 22.454800
*END

*D_NET \$501 3.083182
*CAP
1 \$501:1 3.058359
2 \$501:1 _015_:1 0.007603
3 \$501:1 clknet_2_3__leaf_clk:1 0.003801
4 \$501:1 q1:1 0.003884
5 \$501:1 q6:1 0.003801
6 \$501:1 q7:1 0.005734
*RES
1 \$501:1 \$501:2 87.702700
2 \$501:1 \$501:3 71.874500
3 \$501:1 \$501:4 28.396700
4 \$501:1 \$501:5 16.171300
5 \$501:1 \$501:6 37.693700
6 \$501:1 \$501:7 38.248800
7 \$501:1 \$501:8 51.646900
8 \$501:1 \$501:9 52.376700
*END

*D_NET \$502 2.475012
*CAP
1 \$502:1 2.431892
2 \$502:1 _027_:1 0.003801
3 \$502:1 c1_r 0.004944
4 \$502:1 c6_r 0.003571
5 \$502:1 q1:1 0.007685
6 \$502:1 q6:1 0.013762
7 \$502:1 q7:1 0.009357
*RES
1 \$502:1 \$502:2 5.543100
2 \$502:1 \$502:3 11.158400
3 \$502:1 \$502:4 29.823700
4 \$502:1 \$502:5 22.358100
5 \$502:1 \$502:6 22.218400
6 \$502:1 \$502:7 22.454800
*END

*D_NET \$503 0.353199
*CAP
1 \$503:1 0.327789
2 \$503:1 _004_:1 0.003801
3 \$503:1 _007_:1 0.003801
4 \$503:1 _040_:1 0.009689
5 \$503:1 _052_:1 0.008119
*RES
1 \$503:1 \$503:2 0.567400
2 \$503:1 \$503:3 0.038100
3 \$503:1 \$503:4 0.605500
*END

*D_NET \$504 2.589454
*CAP
1 \$504:1 2.576150
2 \$504:1 _006_:1 0.007685
3 \$504:1 clknet_2_3__leaf_clk:1 0.005619
*RES
1 \$504:1 \$504:2 13.190700
2 \$504:1 \$504:3 12.954000
3 \$504:1 \$504:4 20.949700
4 \$504:1 \$504:5 31.420500
5 \$504:1 \$504:6 31.909200
6 \$504:1 \$504:7 21.388300
7 \$504:1 \$504:8 13.190700
8 \$504:1 \$504:9 12.954000
9 \$504:1 \$504:10 31.909200
10 \$504:1 \$504:11 21.388300
11 \$504:1 \$504:12 31.420500
12 \$504:1 \$504:13 20.949700
*END

*D_NET \$506 3.073115
*CAP
1 \$506:1 3.068764
2 \$506:1 clknet_2_3__leaf_clk:1 0.000331
3 \$506:1 cmp 0.000136
4 \$506:1 ph\[6\]:1 0.003884
*RES
1 \$506:1 \$506:2 87.702700
2 \$506:1 \$506:3 71.874500
3 \$506:1 \$506:4 28.396700
4 \$506:1 \$506:5 16.171300
5 \$506:1 \$506:6 37.693700
6 \$506:1 \$506:7 38.248800
7 \$506:1 \$506:8 51.646900
8 \$506:1 \$506:9 52.376700
*END

*D_NET \$507 2.461324
*CAP
1 \$507:1 2.446037
2 \$507:1 _019_:1 0.003801
3 \$507:1 cmp 0.003801
4 \$507:1 ph\[6\]:1 0.007685
*RES
1 \$507:1 \$507:2 5.543100
2 \$507:1 \$507:3 11.158400
3 \$507:1 \$507:4 29.823700
4 \$507:1 \$507:5 22.358100
5 \$507:1 \$507:6 22.218400
6 \$507:1 \$507:7 22.454800
*END

*D_NET \$508 3.087867
*CAP
1 \$508:1 3.053518
2 \$508:1 _009_\[1\]:1 0.000744
3 \$508:1 _009_\[3\]:1 0.003801
4 \$508:1 _026_:1 0.006221
5 \$508:1 _033_:1 0.008295
6 \$508:1 _061_:1 0.007603
7 \$508:1 clknet_2_3__leaf_clk:1 0.003801
8 \$508:1 ph\[5\]:1 0.003884
*RES
1 \$508:1 \$508:2 87.702700
2 \$508:1 \$508:3 71.874500
3 \$508:1 \$508:4 28.396700
4 \$508:1 \$508:5 16.171300
5 \$508:1 \$508:6 37.693700
6 \$508:1 \$508:7 38.248800
7 \$508:1 \$508:8 51.646900
8 \$508:1 \$508:9 52.376700
*END

*D_NET \$509 2.476695
*CAP
1 \$509:1 2.430151
2 \$509:1 _009_\[3\]:1 0.003801
3 \$509:1 _026_:1 0.013756
4 \$509:1 clknet_2_3__leaf_clk:1 0.009899
5 \$509:1 ph\[2\]:1 0.003801
6 \$509:1 ph\[3\]:1 0.003801
7 \$509:1 ph\[5\]:1 0.007685
8 \$509:1 q9:1 0.003801
*RES
1 \$509:1 \$509:2 5.543100
2 \$509:1 \$509:3 11.158400
3 \$509:1 \$509:4 29.823700
4 \$509:1 \$509:5 22.358100
5 \$509:1 \$509:6 22.218400
6 \$509:1 \$509:7 22.454800
*END

*D_NET \$51 1.017192
*CAP
1 \$51:1 1.017192
*RES
1 \$51:1 \$51:2 10.182900
2 \$51:1 \$51:3 9.506900
3 \$51:1 \$51:4 8.476300
4 \$51:1 \$51:5 4.216200
5 \$51:1 \$51:6 8.414300
6 \$51:1 \$51:7 4.848000
*END

*D_NET \$52 1.398851
*CAP
1 \$52:1 1.398851
*RES
1 \$52:1 \$52:2 15.829900
2 \$52:1 \$52:3 26.929500
3 \$52:1 \$52:4 13.884900
4 \$52:1 \$52:5 23.112000
5 \$52:1 \$52:6 25.697900
6 \$52:1 \$52:7 29.099300
*END

*D_NET \$537 0.991365
*CAP
1 \$537:1 0.976266
2 \$537:1 _003_:1 0.011298
3 \$537:1 clknet_2_0__leaf_clk:1 0.003801
*RES
1 \$537:1 \$537:2 14.858900
2 \$537:1 \$537:3 12.392500
3 \$537:1 \$537:4 13.260000
4 \$537:1 \$537:5 6.064300
5 \$537:1 \$537:6 11.965000
6 \$537:1 \$537:7 5.885000
*END

*D_NET \$538 0.878539
*CAP
1 \$538:1 0.878539
*RES
1 \$538:1 \$538:2 10.946100
2 \$538:1 \$538:3 10.670300
3 \$538:1 \$538:4 6.366200
4 \$538:1 \$538:5 6.353500
5 \$538:1 \$538:6 10.633800
6 \$538:1 \$538:7 10.936800
*END

*D_NET \$539 1.019102
*CAP
1 \$539:1 1.015218
2 \$539:1 ph\[13\]:1 0.003884
*RES
1 \$539:1 \$539:2 9.506900
2 \$539:1 \$539:3 10.182900
3 \$539:1 \$539:4 8.476300
4 \$539:1 \$539:5 4.216200
5 \$539:1 \$539:6 8.414300
6 \$539:1 \$539:7 4.848000
*END

*D_NET \$540 1.400903
*CAP
1 \$540:1 1.396730
2 \$540:1 clknet_0_clk:1 0.000372
3 \$540:1 ph\[13\]:1 0.003801
*RES
1 \$540:1 \$540:2 13.884900
2 \$540:1 \$540:3 25.697900
3 \$540:1 \$540:4 15.829900
4 \$540:1 \$540:5 23.112000
5 \$540:1 \$540:6 26.929500
6 \$540:1 \$540:7 29.099300
*END

*D_NET \$541 0.987606
*CAP
1 \$541:1 0.980151
2 \$541:1 ph\[14\]:1 0.007455
*RES
1 \$541:1 \$541:2 14.858900
2 \$541:1 \$541:3 12.392500
3 \$541:1 \$541:4 13.260000
4 \$541:1 \$541:5 6.064300
5 \$541:1 \$541:6 11.965000
6 \$541:1 \$541:7 5.885000
*END

*D_NET \$542 0.887685
*CAP
1 \$542:1 0.869086
2 \$542:1 c0_r 0.003801
3 \$542:1 c4_r 0.010997
4 \$542:1 ph\[14\]:1 0.003801
*RES
1 \$542:1 \$542:2 10.946100
2 \$542:1 \$542:3 10.670300
3 \$542:1 \$542:4 6.366200
4 \$542:1 \$542:5 6.353500
5 \$542:1 \$542:6 10.633800
6 \$542:1 \$542:7 10.936800
*END

*D_NET \$543 1.023895
*CAP
1 \$543:1 1.010263
2 \$543:1 q3:1 0.013632
*RES
1 \$543:1 \$543:2 9.506900
2 \$543:1 \$543:3 10.182900
3 \$543:1 \$543:4 8.476300
4 \$543:1 \$543:5 4.216200
5 \$543:1 \$543:6 8.414300
6 \$543:1 \$543:7 4.848000
*END

*D_NET \$544 1.398851
*CAP
1 \$544:1 1.398851
*RES
1 \$544:1 \$544:2 13.884900
2 \$544:1 \$544:3 25.697900
3 \$544:1 \$544:4 15.829900
4 \$544:1 \$544:5 23.112000
5 \$544:1 \$544:6 26.929500
6 \$544:1 \$544:7 29.099300
*END

*D_NET \$546 0.993234
*CAP
1 \$546:1 0.974334
2 \$546:1 _007_:1 0.011298
3 \$546:1 _024_:1 0.003801
4 \$546:1 ph\[14\]:1 0.003801
*RES
1 \$546:1 \$546:2 14.858900
2 \$546:1 \$546:3 12.392500
3 \$546:1 \$546:4 13.260000
4 \$546:1 \$546:5 6.064300
5 \$546:1 \$546:6 11.965000
6 \$546:1 \$546:7 5.885000
*END

*D_NET \$547 0.880408
*CAP
1 \$547:1 0.876607
2 \$547:1 _024_:1 0.003801
*RES
1 \$547:1 \$547:2 10.946100
2 \$547:1 \$547:3 10.670300
3 \$547:1 \$547:4 6.366200
4 \$547:1 \$547:5 6.353500
5 \$547:1 \$547:6 10.633800
6 \$547:1 \$547:7 10.936800
*END

*D_NET \$548 1.019102
*CAP
1 \$548:1 1.015218
2 \$548:1 c5_r 0.003884
*RES
1 \$548:1 \$548:2 9.506900
2 \$548:1 \$548:3 10.182900
3 \$548:1 \$548:4 8.476300
4 \$548:1 \$548:5 4.216200
5 \$548:1 \$548:6 8.414300
6 \$548:1 \$548:7 4.848000
*END

*D_NET \$549 1.404351
*CAP
1 \$549:1 1.393166
2 \$549:1 c2_r 0.005619
3 \$549:1 c5_r 0.003801
4 \$549:1 clknet_0_clk:1 0.001765
*RES
1 \$549:1 \$549:2 13.884900
2 \$549:1 \$549:3 25.697900
3 \$549:1 \$549:4 15.829900
4 \$549:1 \$549:5 23.112000
5 \$549:1 \$549:6 26.929500
6 \$549:1 \$549:7 29.099300
*END

*D_NET \$55 0.965175
*CAP
1 \$55:1 0.961374
2 \$55:1 sel_lo_n_64n 0.003801
*RES
1 \$55:1 \$55:2 13.825400
2 \$55:1 \$55:3 12.259000
3 \$55:1 \$55:4 10.277200
4 \$55:1 \$55:5 7.539600
5 \$55:1 \$55:6 11.230200
*END

*D_NET \$550 0.985809
*CAP
1 \$550:1 0.982008
2 \$550:1 q6:1 0.003801
*RES
1 \$550:1 \$550:2 14.858900
2 \$550:1 \$550:3 12.392500
3 \$550:1 \$550:4 13.260000
4 \$550:1 \$550:5 6.064300
5 \$550:1 \$550:6 11.965000
6 \$550:1 \$550:7 5.885000
*END

*D_NET \$551 0.880408
*CAP
1 \$551:1 0.876607
2 \$551:1 c6_r 0.003801
*RES
1 \$551:1 \$551:2 10.946100
2 \$551:1 \$551:3 10.670300
3 \$551:1 \$551:4 6.366200
4 \$551:1 \$551:5 6.353500
5 \$551:1 \$551:6 10.633800
6 \$551:1 \$551:7 10.936800
*END

*D_NET \$552 1.017192
*CAP
1 \$552:1 1.017192
*RES
1 \$552:1 \$552:2 9.506900
2 \$552:1 \$552:3 10.182900
3 \$552:1 \$552:4 8.476300
4 \$552:1 \$552:5 4.216200
5 \$552:1 \$552:6 8.414300
6 \$552:1 \$552:7 4.848000
*END

*D_NET \$553 1.398851
*CAP
1 \$553:1 1.398851
*RES
1 \$553:1 \$553:2 13.884900
2 \$553:1 \$553:3 25.697900
3 \$553:1 \$553:4 15.829900
4 \$553:1 \$553:5 23.112000
5 \$553:1 \$553:6 26.929500
6 \$553:1 \$553:7 29.099300
*END

*D_NET \$555 0.991966
*CAP
1 \$555:1 0.975645
2 \$555:1 _019_:1 0.012520
3 \$555:1 cmp 0.003801
*RES
1 \$555:1 \$555:2 14.858900
2 \$555:1 \$555:3 12.392500
3 \$555:1 \$555:4 13.260000
4 \$555:1 \$555:5 6.064300
5 \$555:1 \$555:6 11.965000
6 \$555:1 \$555:7 5.885000
*END

*D_NET \$556 0.878539
*CAP
1 \$556:1 0.878539
*RES
1 \$556:1 \$556:2 10.946100
2 \$556:1 \$556:3 10.670300
3 \$556:1 \$556:4 6.366200
4 \$556:1 \$556:5 6.353500
5 \$556:1 \$556:6 10.633800
6 \$556:1 \$556:7 10.936800
*END

*D_NET \$557 1.017192
*CAP
1 \$557:1 1.017192
*RES
1 \$557:1 \$557:2 9.506900
2 \$557:1 \$557:3 10.182900
3 \$557:1 \$557:4 8.476300
4 \$557:1 \$557:5 4.216200
5 \$557:1 \$557:6 8.414300
6 \$557:1 \$557:7 4.848000
*END

*D_NET \$558 1.398851
*CAP
1 \$558:1 1.398851
*RES
1 \$558:1 \$558:2 13.884900
2 \$558:1 \$558:3 25.697900
3 \$558:1 \$558:4 15.829900
4 \$558:1 \$558:5 23.112000
5 \$558:1 \$558:6 26.929500
6 \$558:1 \$558:7 29.099300
*END

*D_NET \$559 0.998035
*CAP
1 \$559:1 0.969372
2 \$559:1 _009_\[3\]:1 0.022826
3 \$559:1 ph\[2\]:1 0.002036
4 \$559:1 q9:1 0.003801
*RES
1 \$559:1 \$559:2 14.858900
2 \$559:1 \$559:3 12.392500
3 \$559:1 \$559:4 13.260000
4 \$559:1 \$559:5 6.064300
5 \$559:1 \$559:6 11.965000
6 \$559:1 \$559:7 5.885000
*END

*D_NET \$560 0.887685
*CAP
1 \$560:1 0.869086
2 \$560:1 ph\[2\]:1 0.003801
3 \$560:1 ph\[3\]:1 0.010997
4 \$560:1 q9:1 0.003801
*RES
1 \$560:1 \$560:2 10.946100
2 \$560:1 \$560:3 10.670300
3 \$560:1 \$560:4 6.366200
4 \$560:1 \$560:5 6.353500
5 \$560:1 \$560:6 10.633800
6 \$560:1 \$560:7 10.936800
*END

*D_NET \$561 1.018183
*CAP
1 \$561:1 1.016167
2 \$561:1 _009_\[4\]:1 0.001322
3 \$561:1 _035_:1 0.000694
*RES
1 \$561:1 \$561:2 9.506900
2 \$561:1 \$561:3 10.182900
3 \$561:1 \$561:4 8.476300
4 \$561:1 \$561:5 4.216200
5 \$561:1 \$561:6 8.414300
6 \$561:1 \$561:7 4.848000
*END

*D_NET \$562 1.400720
*CAP
1 \$562:1 1.396919
2 \$562:1 _035_:1 0.003801
*RES
1 \$562:1 \$562:2 13.884900
2 \$562:1 \$562:3 25.697900
3 \$562:1 \$562:4 15.829900
4 \$562:1 \$562:5 23.112000
5 \$562:1 \$562:6 26.929500
6 \$562:1 \$562:7 29.099300
*END

*D_NET \$59 0.963306
*CAP
1 \$59:1 0.963306
*RES
1 \$59:1 \$59:2 10.277200
2 \$59:1 \$59:3 12.259000
3 \$59:1 \$59:4 13.825400
4 \$59:1 \$59:5 11.230200
5 \$59:1 \$59:6 7.539600
*END

*D_NET \$60 0.963306
*CAP
1 \$60:1 0.963306
*RES
1 \$60:1 \$60:2 10.277200
2 \$60:1 \$60:3 12.259000
3 \$60:1 \$60:4 13.825400
4 \$60:1 \$60:5 11.230200
5 \$60:1 \$60:6 7.539600
*END

*D_NET \$609 1.226130
*CAP
1 \$609:1 1.182796
2 \$609:1 c1_r 0.039533
3 \$609:1 c6_r 0.003801
*RES
1 \$609:1 \$609:2 20.342600
2 \$609:1 \$609:3 25.239000
3 \$609:1 \$609:4 21.558900
4 \$609:1 \$609:5 17.533700
*END

*D_NET \$613 3.096218
*CAP
1 \$613:1 3.044886
2 \$613:1 _017_:1 0.026637
3 \$613:1 _062_:1 0.007603
4 \$613:1 cmp 0.013291
5 \$613:1 ph\[11\]:1 0.003801
*RES
1 \$613:1 \$613:2 87.702700
2 \$613:1 \$613:3 71.874500
3 \$613:1 \$613:4 28.396700
4 \$613:1 \$613:5 16.171300
5 \$613:1 \$613:6 37.693700
6 \$613:1 \$613:7 38.248800
7 \$613:1 \$613:8 51.646900
8 \$613:1 \$613:9 52.376700
*END

*D_NET \$614 2.475312
*CAP
1 \$614:1 2.431580
2 \$614:1 _009_\[12\]:1 0.003801
3 \$614:1 _017_:1 0.000679
4 \$614:1 _048_:1 0.017888
5 \$614:1 _057_:1 0.003801
6 \$614:1 clknet_2_1__leaf_clk:1 0.003801
7 \$614:1 ph\[11\]:1 0.013762
*RES
1 \$614:1 \$614:2 29.823700
2 \$614:1 \$614:3 22.358100
3 \$614:1 \$614:4 5.543100
4 \$614:1 \$614:5 11.158400
5 \$614:1 \$614:6 22.218400
6 \$614:1 \$614:7 22.454800
*END

*D_NET \$615 0.883947
*CAP
1 \$615:1 0.872950
2 \$615:1 _057_:1 0.010997
*RES
1 \$615:1 \$615:2 10.670300
2 \$615:1 \$615:3 10.946100
3 \$615:1 \$615:4 6.353500
4 \$615:1 \$615:5 10.633800
5 \$615:1 \$615:6 6.366200
6 \$615:1 \$615:7 10.936800
*END

*D_NET \$616 1.019932
*CAP
1 \$616:1 1.014360
2 \$616:1 clknet_2_1__leaf_clk:1 0.005572
*RES
1 \$616:1 \$616:2 10.182900
2 \$616:1 \$616:3 9.506900
3 \$616:1 \$616:4 8.476300
4 \$616:1 \$616:5 4.216200
5 \$616:1 \$616:6 8.414300
6 \$616:1 \$616:7 4.848000
*END

*D_NET \$617 1.398851
*CAP
1 \$617:1 1.398851
*RES
1 \$617:1 \$617:2 15.829900
2 \$617:1 \$617:3 26.929500
3 \$617:1 \$617:4 13.884900
4 \$617:1 \$617:5 23.112000
5 \$617:1 \$617:6 25.697900
6 \$617:1 \$617:7 29.099300
*END

*D_NET \$619 3.077533
*CAP
1 \$619:1 3.064197
2 \$619:1 _012_:1 0.003801
3 \$619:1 clknet_2_0__leaf_clk:1 0.005734
4 \$619:1 clknet_2_1__leaf_clk:1 0.003801
*RES
1 \$619:1 \$619:2 87.702700
2 \$619:1 \$619:3 71.874500
3 \$619:1 \$619:4 28.396700
4 \$619:1 \$619:5 16.171300
5 \$619:1 \$619:6 37.693700
6 \$619:1 \$619:7 38.248800
7 \$619:1 \$619:8 51.646900
8 \$619:1 \$619:9 52.376700
*END

*D_NET \$620 2.462147
*CAP
1 \$620:1 2.445188
2 \$620:1 clknet_2_0__leaf_clk:1 0.009357
3 \$620:1 ph\[13\]:1 0.003801
4 \$620:1 q0:1 0.003801
*RES
1 \$620:1 \$620:2 29.823700
2 \$620:1 \$620:3 22.358100
3 \$620:1 \$620:4 5.543100
4 \$620:1 \$620:5 11.158400
5 \$620:1 \$620:6 22.218400
6 \$620:1 \$620:7 22.454800
*END

*D_NET \$622 0.880896
*CAP
1 \$622:1 0.876103
2 \$622:1 ph\[13\]:1 0.003801
3 \$622:1 q0:1 0.000992
*RES
1 \$622:1 \$622:2 10.670300
2 \$622:1 \$622:3 10.946100
3 \$622:1 \$622:4 6.353500
4 \$622:1 \$622:5 10.633800
5 \$622:1 \$622:6 6.366200
6 \$622:1 \$622:7 10.936800
*END

*D_NET \$623 1.017192
*CAP
1 \$623:1 1.017192
*RES
1 \$623:1 \$623:2 10.182900
2 \$623:1 \$623:3 9.506900
3 \$623:1 \$623:4 8.476300
4 \$623:1 \$623:5 4.216200
5 \$623:1 \$623:6 8.414300
6 \$623:1 \$623:7 4.848000
*END

*D_NET \$624 1.398851
*CAP
1 \$624:1 1.398851
*RES
1 \$624:1 \$624:2 15.829900
2 \$624:1 \$624:3 26.929500
3 \$624:1 \$624:4 13.884900
4 \$624:1 \$624:5 23.112000
5 \$624:1 \$624:6 25.697900
6 \$624:1 \$624:7 29.099300
*END

*D_NET \$625 3.089064
*CAP
1 \$625:1 3.052280
2 \$625:1 _013_:1 0.013291
3 \$625:1 _023_:1 0.008951
4 \$625:1 clknet_2_1__leaf_clk:1 0.007603
5 \$625:1 q0:1 0.003055
6 \$625:1 q4:1 0.003884
*RES
1 \$625:1 \$625:2 87.702700
2 \$625:1 \$625:3 71.874500
3 \$625:1 \$625:4 28.396700
4 \$625:1 \$625:5 16.171300
5 \$625:1 \$625:6 37.693700
6 \$625:1 \$625:7 38.248800
7 \$625:1 \$625:8 51.646900
8 \$625:1 \$625:9 52.376700
*END

*D_NET \$626 2.479641
*CAP
1 \$626:1 2.427107
2 \$626:1 _023_:1 0.024564
3 \$626:1 c0_r 0.003801
4 \$626:1 c4_r 0.004944
5 \$626:1 ph\[14\]:1 0.007874
6 \$626:1 q3:1 0.003666
7 \$626:1 q4:1 0.007685
*RES
1 \$626:1 \$626:2 29.823700
2 \$626:1 \$626:3 22.358100
3 \$626:1 \$626:4 5.543100
4 \$626:1 \$626:5 11.158400
5 \$626:1 \$626:6 22.218400
6 \$626:1 \$626:7 22.454800
*END

*D_NET \$628 0.885816
*CAP
1 \$628:1 0.871018
2 \$628:1 c0_r 0.010997
3 \$628:1 ph\[14\]:1 0.003801
*RES
1 \$628:1 \$628:2 10.670300
2 \$628:1 \$628:3 10.946100
3 \$628:1 \$628:4 6.353500
4 \$628:1 \$628:5 10.633800
5 \$628:1 \$628:6 6.366200
6 \$628:1 \$628:7 10.936800
*END

*D_NET \$629 1.019102
*CAP
1 \$629:1 1.015218
2 \$629:1 q3:1 0.003884
*RES
1 \$629:1 \$629:2 10.182900
2 \$629:1 \$629:3 9.506900
3 \$629:1 \$629:4 8.476300
4 \$629:1 \$629:5 4.216200
5 \$629:1 \$629:6 8.414300
6 \$629:1 \$629:7 4.848000
*END

*D_NET \$630 1.402136
*CAP
1 \$630:1 1.395457
2 \$630:1 c3_r 0.006679
*RES
1 \$630:1 \$630:2 15.829900
2 \$630:1 \$630:3 26.929500
3 \$630:1 \$630:4 13.884900
4 \$630:1 \$630:5 23.112000
5 \$630:1 \$630:6 25.697900
6 \$630:1 \$630:7 29.099300
*END

*D_NET \$631 3.076583
*CAP
1 \$631:1 3.065179
2 \$631:1 clknet_2_1__leaf_clk:1 0.003801
3 \$631:1 ph\[14\]:1 0.007603
*RES
1 \$631:1 \$631:2 87.702700
2 \$631:1 \$631:3 71.874500
3 \$631:1 \$631:4 28.396700
4 \$631:1 \$631:5 16.171300
5 \$631:1 \$631:6 37.693700
6 \$631:1 \$631:7 38.248800
7 \$631:1 \$631:8 51.646900
8 \$631:1 \$631:9 52.376700
*END

*D_NET \$632 2.467118
*CAP
1 \$632:1 2.440049
2 \$632:1 _016_:1 0.003801
3 \$632:1 _024_:1 0.007874
4 \$632:1 c9_r 0.003801
5 \$632:1 clk 0.004126
6 \$632:1 ph\[14\]:1 0.003801
7 \$632:1 q5:1 0.003666
*RES
1 \$632:1 \$632:2 29.823700
2 \$632:1 \$632:3 22.358100
3 \$632:1 \$632:4 5.543100
4 \$632:1 \$632:5 11.158400
5 \$632:1 \$632:6 22.218400
6 \$632:1 \$632:7 22.454800
*END

*D_NET \$633 0.884146
*CAP
1 \$633:1 0.872743
2 \$633:1 _024_:1 0.003801
3 \$633:1 c9_r 0.003801
4 \$633:1 ph\[14\]:1 0.003801
*RES
1 \$633:1 \$633:2 10.670300
2 \$633:1 \$633:3 10.946100
3 \$633:1 \$633:4 6.353500
4 \$633:1 \$633:5 10.633800
5 \$633:1 \$633:6 6.366200
6 \$633:1 \$633:7 10.936800
*END

*D_NET \$634 1.021012
*CAP
1 \$634:1 1.013244
2 \$634:1 clknet_0_clk:1 0.003884
3 \$634:1 q5:1 0.003884
*RES
1 \$634:1 \$634:2 10.182900
2 \$634:1 \$634:3 9.506900
3 \$634:1 \$634:4 8.476300
4 \$634:1 \$634:5 4.216200
5 \$634:1 \$634:6 8.414300
6 \$634:1 \$634:7 4.848000
*END

*D_NET \$635 1.404218
*CAP
1 \$635:1 1.393304
2 \$635:1 c5_r 0.007113
3 \$635:1 clknet_0_clk:1 0.003801
*RES
1 \$635:1 \$635:2 15.829900
2 \$635:1 \$635:3 26.929500
3 \$635:1 \$635:4 13.884900
4 \$635:1 \$635:5 23.112000
5 \$635:1 \$635:6 25.697900
6 \$635:1 \$635:7 29.099300
*END

*D_NET \$636 1.093137
*CAP
1 \$636:1 1.083793
2 \$636:1 _027_:1 0.003884
3 \$636:1 ph\[14\]:1 0.001493
4 \$636:1 q6:1 0.003967
*RES
1 \$636:1 \$636:2 10.976900
2 \$636:1 \$636:3 11.670100
3 \$636:1 \$636:4 7.453900
4 \$636:1 \$636:5 10.527400
5 \$636:1 \$636:6 6.802500
6 \$636:1 \$636:7 10.031200
*END

*D_NET \$639 3.077016
*CAP
1 \$639:1 3.064732
2 \$639:1 clknet_0_clk:1 0.003884
3 \$639:1 eng9:1 0.008400
*RES
1 \$639:1 \$639:2 87.702700
2 \$639:1 \$639:3 71.874500
3 \$639:1 \$639:4 28.396700
4 \$639:1 \$639:5 16.171300
5 \$639:1 \$639:6 37.693700
6 \$639:1 \$639:7 38.248800
7 \$639:1 \$639:8 51.646900
8 \$639:1 \$639:9 52.376700
*END

*D_NET \$640 2.463193
*CAP
1 \$640:1 2.444105
2 \$640:1 _006_:1 0.003801
3 \$640:1 clknet_0_clk:1 0.007685
4 \$640:1 clknet_2_3__leaf_clk:1 0.003801
5 \$640:1 start 0.003801
*RES
1 \$640:1 \$640:2 29.823700
2 \$640:1 \$640:3 22.358100
3 \$640:1 \$640:4 5.543100
4 \$640:1 \$640:5 11.158400
5 \$640:1 \$640:6 22.218400
6 \$640:1 \$640:7 22.454800
*END

*D_NET \$641 0.878539
*CAP
1 \$641:1 0.878539
*RES
1 \$641:1 \$641:2 10.670300
2 \$641:1 \$641:3 10.946100
3 \$641:1 \$641:4 6.353500
4 \$641:1 \$641:5 10.633800
5 \$641:1 \$641:6 6.366200
6 \$641:1 \$641:7 10.936800
*END

*D_NET \$642 1.025805
*CAP
1 \$642:1 1.008289
2 \$642:1 _009_\[8\]:1 0.003884
3 \$642:1 start 0.013632
*RES
1 \$642:1 \$642:2 10.182900
2 \$642:1 \$642:3 9.506900
3 \$642:1 \$642:4 8.476300
4 \$642:1 \$642:5 4.216200
5 \$642:1 \$642:6 8.414300
6 \$642:1 \$642:7 4.848000
*END

*D_NET \$643 1.402482
*CAP
1 \$643:1 1.395098
2 \$643:1 _009_\[8\]:1 0.001765
3 \$643:1 ph\[6\]:1 0.005619
*RES
1 \$643:1 \$643:2 15.829900
2 \$643:1 \$643:3 26.929500
3 \$643:1 \$643:4 13.884900
4 \$643:1 \$643:5 23.112000
5 \$643:1 \$643:6 25.697900
6 \$643:1 \$643:7 29.099300
*END

*D_NET \$648 0.991966
*CAP
1 \$648:1 0.975645
2 \$648:1 _009_\[12\]:1 0.012520
3 \$648:1 ph\[11\]:1 0.003801
*RES
1 \$648:1 \$648:2 12.392500
2 \$648:1 \$648:3 14.858900
3 \$648:1 \$648:4 11.965000
4 \$648:1 \$648:5 5.885000
5 \$648:1 \$648:6 13.260000
6 \$648:1 \$648:7 6.064300
*END

*D_NET \$649 0.986810
*CAP
1 \$649:1 0.980973
2 \$649:1 ph\[13\]:1 0.002036
3 \$649:1 q0:1 0.003801
*RES
1 \$649:1 \$649:2 12.392500
2 \$649:1 \$649:3 14.858900
3 \$649:1 \$649:4 11.965000
4 \$649:1 \$649:5 5.885000
5 \$649:1 \$649:6 13.260000
6 \$649:1 \$649:7 6.064300
*END

*D_NET \$651 0.998271
*CAP
1 \$651:1 0.969129
2 \$651:1 _021_:1 0.029142
*RES
1 \$651:1 \$651:2 12.392500
2 \$651:1 \$651:3 14.858900
3 \$651:1 \$651:4 11.965000
4 \$651:1 \$651:5 5.885000
5 \$651:1 \$651:6 13.260000
6 \$651:1 \$651:7 6.064300
*END

*D_NET \$653 0.986810
*CAP
1 \$653:1 0.980973
2 \$653:1 c9_r 0.002036
3 \$653:1 ph\[14\]:1 0.003801
*RES
1 \$653:1 \$653:2 12.392500
2 \$653:1 \$653:3 14.858900
3 \$653:1 \$653:4 11.965000
4 \$653:1 \$653:5 5.885000
5 \$653:1 \$653:6 13.260000
6 \$653:1 \$653:7 6.064300
*END

*D_NET \$655 0.994973
*CAP
1 \$655:1 0.972537
2 \$655:1 clknet_2_3__leaf_clk:1 0.022436
*RES
1 \$655:1 \$655:2 12.392500
2 \$655:1 \$655:3 14.858900
3 \$655:1 \$655:4 11.965000
4 \$655:1 \$655:5 5.885000
5 \$655:1 \$655:6 13.260000
6 \$655:1 \$655:7 6.064300
*END

*D_NET \$66 3.074713
*CAP
1 \$66:1 3.067111
2 \$66:1 _009_\[7\]:1 0.003801
3 \$66:1 clknet_2_2__leaf_clk:1 0.003801
*RES
1 \$66:1 \$66:2 87.702700
2 \$66:1 \$66:3 71.874500
3 \$66:1 \$66:4 28.396700
4 \$66:1 \$66:5 16.171300
5 \$66:1 \$66:6 37.693700
6 \$66:1 \$66:7 38.248800
7 \$66:1 \$66:8 51.646900
8 \$66:1 \$66:9 52.376700
*END

*D_NET \$67 2.453807
*CAP
1 \$67:1 2.453807
*RES
1 \$67:1 \$67:2 29.823700
2 \$67:1 \$67:3 22.358100
3 \$67:1 \$67:4 5.543100
4 \$67:1 \$67:5 11.158400
5 \$67:1 \$67:6 22.218400
6 \$67:1 \$67:7 22.454800
*END

*D_NET \$677 0.344697
*CAP
1 \$677:1 0.336578
2 \$677:1 _049_:1 0.008119
*RES
1 \$677:1 \$677:2 0.567400
2 \$677:1 \$677:3 0.038100
3 \$677:1 \$677:4 0.605500
*END

*D_NET \$678 0.344442
*CAP
1 \$678:1 0.336840
2 \$678:1 _008_:1 0.003801
3 \$678:1 ph[15] 0.003801
*RES
1 \$678:1 \$678:2 0.567400
2 \$678:1 \$678:3 0.038100
3 \$678:1 \$678:4 0.605500
*END

*D_NET \$679 0.346566
*CAP
1 \$679:1 0.334646
2 \$679:1 cmp 0.008119
3 \$679:1 ph\[8\]:1 0.003801
*RES
1 \$679:1 \$679:2 0.567400
2 \$679:1 \$679:3 0.038100
3 \$679:1 \$679:4 0.605500
*END

*D_NET \$680 0.350787
*CAP
1 \$680:1 0.330282
2 \$680:1 _009_\[2\]:1 0.003801
3 \$680:1 cmp 0.003214
4 \$680:1 ph\[5\]:1 0.009689
5 \$680:1 start 0.003801
*RES
1 \$680:1 \$680:2 0.567400
2 \$680:1 \$680:3 0.038100
3 \$680:1 \$680:4 0.605500
*END

*D_NET \$681 0.346309
*CAP
1 \$681:1 0.334911
2 \$681:1 cmp 0.003214
3 \$681:1 ph\[4\]:1 0.008184
*RES
1 \$681:1 \$681:2 0.567400
2 \$681:1 \$681:3 0.038100
3 \$681:1 \$681:4 0.605500
*END

*D_NET \$685 1.227999
*CAP
1 \$685:1 1.180864
2 \$685:1 c0_r 0.003801
3 \$685:1 ph\[14\]:1 0.003801
4 \$685:1 q3:1 0.039533
*RES
1 \$685:1 \$685:2 20.342600
2 \$685:1 \$685:3 25.239000
3 \$685:1 \$685:4 21.558900
4 \$685:1 \$685:5 17.533700
*END

*D_NET \$686 1.204820
*CAP
1 \$686:1 1.204820
*RES
1 \$686:1 \$686:2 20.342600
2 \$686:1 \$686:3 25.239000
3 \$686:1 \$686:4 21.558900
4 \$686:1 \$686:5 17.533700
*END

*D_NET \$687 1.206689
*CAP
1 \$687:1 1.202888
2 \$687:1 clknet_0_clk:1 0.003801
*RES
1 \$687:1 \$687:2 20.342600
2 \$687:1 \$687:3 25.239000
3 \$687:1 \$687:4 21.558900
4 \$687:1 \$687:5 17.533700
*END

*D_NET \$688 1.204820
*CAP
1 \$688:1 1.204820
*RES
1 \$688:1 \$688:2 20.342600
2 \$688:1 \$688:3 25.239000
3 \$688:1 \$688:4 21.558900
4 \$688:1 \$688:5 17.533700
*END

*D_NET \$69 0.983940
*CAP
1 \$69:1 0.983940
*RES
1 \$69:1 \$69:2 12.392500
2 \$69:1 \$69:3 14.858900
3 \$69:1 \$69:4 11.965000
4 \$69:1 \$69:5 5.885000
5 \$69:1 \$69:6 13.260000
6 \$69:1 \$69:7 6.064300
*END

*D_NET \$70 0.878539
*CAP
1 \$70:1 0.878539
*RES
1 \$70:1 \$70:2 10.670300
2 \$70:1 \$70:3 10.946100
3 \$70:1 \$70:4 6.353500
4 \$70:1 \$70:5 10.633800
5 \$70:1 \$70:6 6.366200
6 \$70:1 \$70:7 10.936800
*END

*D_NET \$71 1.017192
*CAP
1 \$71:1 1.017192
*RES
1 \$71:1 \$71:2 10.182900
2 \$71:1 \$71:3 9.506900
3 \$71:1 \$71:4 8.476300
4 \$71:1 \$71:5 4.216200
5 \$71:1 \$71:6 8.414300
6 \$71:1 \$71:7 4.848000
*END

*D_NET \$711 0.346566
*CAP
1 \$711:1 0.334646
2 \$711:1 _017_:1 0.003801
3 \$711:1 cmp 0.008119
*RES
1 \$711:1 \$711:2 0.567400
2 \$711:1 \$711:3 0.038100
3 \$711:1 \$711:4 0.605500
*END

*D_NET \$712 0.349461
*CAP
1 \$712:1 0.331653
2 \$712:1 cmp 0.008119
3 \$712:1 ph\[12\]:1 0.009689
*RES
1 \$712:1 \$712:2 0.567400
2 \$712:1 \$712:3 0.038100
3 \$712:1 \$712:4 0.605500
*END

*D_NET \$714 0.346566
*CAP
1 \$714:1 0.334646
2 \$714:1 clknet_2_0__leaf_clk:1 0.003801
3 \$714:1 cmp 0.008119
*RES
1 \$714:1 \$714:2 0.567400
2 \$714:1 \$714:3 0.038100
3 \$714:1 \$714:4 0.605500
*END

*D_NET \$716 1.091924
*CAP
1 \$716:1 1.085047
2 \$716:1 _021_:1 0.002910
3 \$716:1 q4:1 0.003967
*RES
1 \$716:1 \$716:2 11.670100
2 \$716:1 \$716:3 10.976900
3 \$716:1 \$716:4 7.453900
4 \$716:1 \$716:5 10.527400
5 \$716:1 \$716:6 6.802500
6 \$716:1 \$716:7 10.031200
*END

*D_NET \$718 1.091842
*CAP
1 \$718:1 1.085131
2 \$718:1 _011_:1 0.002910
3 \$718:1 q8:1 0.003801
*RES
1 \$718:1 \$718:2 10.976900
2 \$718:1 \$718:3 11.670100
3 \$718:1 \$718:4 7.453900
4 \$718:1 \$718:5 10.527400
5 \$718:1 \$718:6 6.802500
6 \$718:1 \$718:7 10.031200
*END

*D_NET \$719 1.092321
*CAP
1 \$719:1 1.084636
2 \$719:1 clk 0.003884
3 \$719:1 q5:1 0.003801
*RES
1 \$719:1 \$719:2 10.976900
2 \$719:1 \$719:3 11.670100
3 \$719:1 \$719:4 7.453900
4 \$719:1 \$719:5 10.527400
5 \$719:1 \$719:6 6.802500
6 \$719:1 \$719:7 10.031200
*END

*D_NET \$72 1.398851
*CAP
1 \$72:1 1.398851
*RES
1 \$72:1 \$72:2 15.829900
2 \$72:1 \$72:3 26.929500
3 \$72:1 \$72:4 13.884900
4 \$72:1 \$72:5 23.112000
5 \$72:1 \$72:6 25.697900
6 \$72:1 \$72:7 29.099300
*END

*D_NET \$720 1.094272
*CAP
1 \$720:1 1.082620
2 \$720:1 ph\[14\]:1 0.003967
3 \$720:1 q1:1 0.003801
4 \$720:1 q7:1 0.003884
*RES
1 \$720:1 \$720:2 10.976900
2 \$720:1 \$720:3 11.670100
3 \$720:1 \$720:4 7.453900
4 \$720:1 \$720:5 10.527400
5 \$720:1 \$720:6 6.802500
6 \$720:1 \$720:7 10.031200
*END

*D_NET \$722 3.082855
*CAP
1 \$722:1 3.058698
2 \$722:1 _049_:1 0.007603
3 \$722:1 clknet_2_3__leaf_clk:1 0.007603
4 \$722:1 ph\[13\]:1 0.008951
*RES
1 \$722:1 \$722:2 87.702700
2 \$722:1 \$722:3 71.874500
3 \$722:1 \$722:4 28.396700
4 \$722:1 \$722:5 16.171300
5 \$722:1 \$722:6 37.693700
6 \$722:1 \$722:7 38.248800
7 \$722:1 \$722:8 51.646900
8 \$722:1 \$722:9 52.376700
*END

*D_NET \$723 0.991365
*CAP
1 \$723:1 0.976266
2 \$723:1 _008_:1 0.011298
3 \$723:1 ph[15] 0.003801
*RES
1 \$723:1 \$723:2 14.858900
2 \$723:1 \$723:3 12.392500
3 \$723:1 \$723:4 13.260000
4 \$723:1 \$723:5 6.064300
5 \$723:1 \$723:6 11.965000
6 \$723:1 \$723:7 5.885000
*END

*D_NET \$724 0.880408
*CAP
1 \$724:1 0.876607
2 \$724:1 ph[15] 0.003801
*RES
1 \$724:1 \$724:2 10.946100
2 \$724:1 \$724:3 10.670300
3 \$724:1 \$724:4 6.366200
4 \$724:1 \$724:5 6.353500
5 \$724:1 \$724:6 10.633800
6 \$724:1 \$724:7 10.936800
*END

*D_NET \$725 2.465260
*CAP
1 \$725:1 2.441971
2 \$725:1 ph\[13\]:1 0.019488
3 \$725:1 ph[15] 0.003801
*RES
1 \$725:1 \$725:2 5.543100
2 \$725:1 \$725:3 11.158400
3 \$725:1 \$725:4 29.823700
4 \$725:1 \$725:5 22.358100
5 \$725:1 \$725:6 22.218400
6 \$725:1 \$725:7 22.454800
*END

*D_NET \$726 1.017192
*CAP
1 \$726:1 1.017192
*RES
1 \$726:1 \$726:2 9.506900
2 \$726:1 \$726:3 10.182900
3 \$726:1 \$726:4 8.476300
4 \$726:1 \$726:5 4.216200
5 \$726:1 \$726:6 8.414300
6 \$726:1 \$726:7 4.848000
*END

*D_NET \$727 1.398851
*CAP
1 \$727:1 1.398851
*RES
1 \$727:1 \$727:2 13.884900
2 \$727:1 \$727:3 25.697900
3 \$727:1 \$727:4 15.829900
4 \$727:1 \$727:5 23.112000
5 \$727:1 \$727:6 26.929500
6 \$727:1 \$727:7 29.099300
*END

*D_NET \$728 2.582912
*CAP
1 \$728:1 2.582912
*RES
1 \$728:1 \$728:2 20.949700
2 \$728:1 \$728:3 12.954000
3 \$728:1 \$728:4 13.190700
4 \$728:1 \$728:5 31.420500
5 \$728:1 \$728:6 31.909200
6 \$728:1 \$728:7 13.190700
7 \$728:1 \$728:8 12.954000
8 \$728:1 \$728:9 21.388300
9 \$728:1 \$728:10 31.909200
10 \$728:1 \$728:11 21.388300
11 \$728:1 \$728:12 31.420500
12 \$728:1 \$728:13 20.949700
*END

*D_NET \$729 0.349461
*CAP
1 \$729:1 0.331653
2 \$729:1 cmp 0.008119
3 \$729:1 ph\[6\]:1 0.009689
*RES
1 \$729:1 \$729:2 0.567400
2 \$729:1 \$729:3 0.038100
3 \$729:1 \$729:4 0.605500
*END

*D_NET \$73 3.072844
*CAP
1 \$73:1 3.069043
2 \$73:1 _009_\[1\]:1 0.003801
*RES
1 \$73:1 \$73:2 87.702700
2 \$73:1 \$73:3 71.874500
3 \$73:1 \$73:4 28.396700
4 \$73:1 \$73:5 16.171300
5 \$73:1 \$73:6 37.693700
6 \$73:1 \$73:7 38.248800
7 \$73:1 \$73:8 51.646900
8 \$73:1 \$73:9 52.376700
*END

*D_NET \$732 3.079403
*CAP
1 \$732:1 3.062265
2 \$732:1 _009_\[3\]:1 0.005734
3 \$732:1 clknet_2_3__leaf_clk:1 0.007603
4 \$732:1 ph\[2\]:1 0.003801
*RES
1 \$732:1 \$732:2 87.702700
2 \$732:1 \$732:3 71.874500
3 \$732:1 \$732:4 28.396700
4 \$732:1 \$732:5 16.171300
5 \$732:1 \$732:6 37.693700
6 \$732:1 \$732:7 38.248800
7 \$732:1 \$732:8 51.646900
8 \$732:1 \$732:9 52.376700
*END

*D_NET \$733 0.995165
*CAP
1 \$733:1 0.972339
2 \$733:1 ph\[2\]:1 0.022826
*RES
1 \$733:1 \$733:2 14.858900
2 \$733:1 \$733:3 12.392500
3 \$733:1 \$733:4 13.260000
4 \$733:1 \$733:5 6.064300
5 \$733:1 \$733:6 11.965000
6 \$733:1 \$733:7 5.885000
*END

*D_NET \$734 0.878539
*CAP
1 \$734:1 0.878539
*RES
1 \$734:1 \$734:2 10.946100
2 \$734:1 \$734:3 10.670300
3 \$734:1 \$734:4 6.366200
4 \$734:1 \$734:5 6.353500
5 \$734:1 \$734:6 10.633800
6 \$734:1 \$734:7 10.936800
*END

*D_NET \$735 2.462081
*CAP
1 \$735:1 2.445257
2 \$735:1 _009_\[3\]:1 0.009357
3 \$735:1 ph\[2\]:1 0.003801
4 \$735:1 ph\[3\]:1 0.003666
*RES
1 \$735:1 \$735:2 5.543100
2 \$735:1 \$735:3 11.158400
3 \$735:1 \$735:4 29.823700
4 \$735:1 \$735:5 22.358100
5 \$735:1 \$735:6 22.218400
6 \$735:1 \$735:7 22.454800
*END

*D_NET \$736 1.019102
*CAP
1 \$736:1 1.015218
2 \$736:1 ph\[3\]:1 0.003884
*RES
1 \$736:1 \$736:2 9.506900
2 \$736:1 \$736:3 10.182900
3 \$736:1 \$736:4 8.476300
4 \$736:1 \$736:5 4.216200
5 \$736:1 \$736:6 8.414300
6 \$736:1 \$736:7 4.848000
*END

*D_NET \$737 1.398851
*CAP
1 \$737:1 1.398851
*RES
1 \$737:1 \$737:2 13.884900
2 \$737:1 \$737:3 25.697900
3 \$737:1 \$737:4 15.829900
4 \$737:1 \$737:5 23.112000
5 \$737:1 \$737:6 26.929500
6 \$737:1 \$737:7 29.099300
*END

*D_NET \$74 2.453807
*CAP
1 \$74:1 2.453807
*RES
1 \$74:1 \$74:2 29.823700
2 \$74:1 \$74:3 22.358100
3 \$74:1 \$74:4 5.543100
4 \$74:1 \$74:5 11.158400
5 \$74:1 \$74:6 22.218400
6 \$74:1 \$74:7 22.454800
*END

*D_NET \$76 0.983940
*CAP
1 \$76:1 0.983940
*RES
1 \$76:1 \$76:2 12.392500
2 \$76:1 \$76:3 14.858900
3 \$76:1 \$76:4 11.965000
4 \$76:1 \$76:5 5.885000
5 \$76:1 \$76:6 13.260000
6 \$76:1 \$76:7 6.064300
*END

*D_NET \$760 2.585675
*CAP
1 \$760:1 2.580056
2 \$760:1 clknet_0_clk:1 0.005619
*RES
1 \$760:1 \$760:2 13.190700
2 \$760:1 \$760:3 20.949700
3 \$760:1 \$760:4 12.954000
4 \$760:1 \$760:5 31.420500
5 \$760:1 \$760:6 31.909200
6 \$760:1 \$760:7 21.388300
7 \$760:1 \$760:8 13.190700
8 \$760:1 \$760:9 12.954000
9 \$760:1 \$760:10 31.909200
10 \$760:1 \$760:11 21.388300
11 \$760:1 \$760:12 31.420500
12 \$760:1 \$760:13 20.949700
*END

*D_NET \$761 1.098023
*CAP
1 \$761:1 1.078743
2 \$761:1 _028_:1 0.007603
3 \$761:1 ph\[14\]:1 0.003967
4 \$761:1 q7:1 0.007710
*RES
1 \$761:1 \$761:2 10.976900
2 \$761:1 \$761:3 11.670100
3 \$761:1 \$761:4 7.453900
4 \$761:1 \$761:5 10.527400
5 \$761:1 \$761:6 6.802500
6 \$761:1 \$761:7 10.031200
*END

*D_NET \$762 1.204820
*CAP
1 \$762:1 1.204820
*RES
1 \$762:1 \$762:2 20.342600
2 \$762:1 \$762:3 25.239000
3 \$762:1 \$762:4 21.558900
4 \$762:1 \$762:5 17.533700
*END

*D_NET \$77 0.878539
*CAP
1 \$77:1 0.878539
*RES
1 \$77:1 \$77:2 10.670300
2 \$77:1 \$77:3 10.946100
3 \$77:1 \$77:4 6.353500
4 \$77:1 \$77:5 10.633800
5 \$77:1 \$77:6 6.366200
6 \$77:1 \$77:7 10.936800
*END

*D_NET \$78 1.017192
*CAP
1 \$78:1 1.017192
*RES
1 \$78:1 \$78:2 10.182900
2 \$78:1 \$78:3 9.506900
3 \$78:1 \$78:4 8.476300
4 \$78:1 \$78:5 4.216200
5 \$78:1 \$78:6 8.414300
6 \$78:1 \$78:7 4.848000
*END

*D_NET \$781 2.459898
*CAP
1 \$781:1 2.447512
2 \$781:1 _025_:1 0.004899
3 \$781:1 _049_:1 0.003636
4 \$781:1 ph\[9\]:1 0.003801
5 \$781:1 q4:1 0.000050
*RES
1 \$781:1 \$781:2 29.823700
2 \$781:1 \$781:3 22.358100
3 \$781:1 \$781:4 5.543100
4 \$781:1 \$781:5 11.158400
5 \$781:1 \$781:6 22.218400
6 \$781:1 \$781:7 22.454800
*END

*D_NET \$782 0.880408
*CAP
1 \$782:1 0.876607
2 \$782:1 ph\[9\]:1 0.003801
*RES
1 \$782:1 \$782:2 10.670300
2 \$782:1 \$782:3 10.946100
3 \$782:1 \$782:4 6.353500
4 \$782:1 \$782:5 10.633800
5 \$782:1 \$782:6 6.366200
6 \$782:1 \$782:7 10.936800
*END

*D_NET \$783 1.398851
*CAP
1 \$783:1 1.398851
*RES
1 \$783:1 \$783:2 15.829900
2 \$783:1 \$783:3 26.929500
3 \$783:1 \$783:4 13.884900
4 \$783:1 \$783:5 23.112000
5 \$783:1 \$783:6 25.697900
6 \$783:1 \$783:7 29.099300
*END

*D_NET \$784 2.463715
*CAP
1 \$784:1 2.443567
2 \$784:1 _009_\[13\]:1 0.003801
3 \$784:1 clknet_2_0__leaf_clk:1 0.003801
4 \$784:1 clknet_2_1__leaf_clk:1 0.003801
5 \$784:1 q1:1 0.004944
6 \$784:1 start 0.003801
*RES
1 \$784:1 \$784:2 29.823700
2 \$784:1 \$784:3 22.358100
3 \$784:1 \$784:4 5.543100
4 \$784:1 \$784:5 11.158400
5 \$784:1 \$784:6 22.218400
6 \$784:1 \$784:7 22.454800
*END

*D_NET \$785 0.885816
*CAP
1 \$785:1 0.871018
2 \$785:1 clknet_2_0__leaf_clk:1 0.010997
3 \$785:1 clknet_2_1__leaf_clk:1 0.003801
*RES
1 \$785:1 \$785:2 10.670300
2 \$785:1 \$785:3 10.946100
3 \$785:1 \$785:4 6.353500
4 \$785:1 \$785:5 10.633800
5 \$785:1 \$785:6 6.366200
6 \$785:1 \$785:7 10.936800
*END

*D_NET \$786 1.398851
*CAP
1 \$786:1 1.398851
*RES
1 \$786:1 \$786:2 15.829900
2 \$786:1 \$786:3 26.929500
3 \$786:1 \$786:4 13.884900
4 \$786:1 \$786:5 23.112000
5 \$786:1 \$786:6 25.697900
6 \$786:1 \$786:7 29.099300
*END

*D_NET \$788 2.457545
*CAP
1 \$788:1 2.449943
2 \$788:1 _013_:1 0.003801
3 \$788:1 clknet_2_1__leaf_clk:1 0.003801
*RES
1 \$788:1 \$788:2 29.823700
2 \$788:1 \$788:3 22.358100
3 \$788:1 \$788:4 5.543100
4 \$788:1 \$788:5 11.158400
5 \$788:1 \$788:6 22.218400
6 \$788:1 \$788:7 22.454800
*END

*D_NET \$789 0.878539
*CAP
1 \$789:1 0.878539
*RES
1 \$789:1 \$789:2 10.670300
2 \$789:1 \$789:3 10.946100
3 \$789:1 \$789:4 6.353500
4 \$789:1 \$789:5 10.633800
5 \$789:1 \$789:6 6.366200
6 \$789:1 \$789:7 10.936800
*END

*D_NET \$79 1.400720
*CAP
1 \$79:1 1.396919
2 \$79:1 ph\[1\]:1 0.003801
*RES
1 \$79:1 \$79:2 15.829900
2 \$79:1 \$79:3 26.929500
3 \$79:1 \$79:4 13.884900
4 \$79:1 \$79:5 23.112000
5 \$79:1 \$79:6 25.697900
6 \$79:1 \$79:7 29.099300
*END

*D_NET \$790 1.406048
*CAP
1 \$790:1 1.391413
2 \$790:1 _021_:1 0.003801
3 \$790:1 c0_r 0.007033
4 \$790:1 ph\[14\]:1 0.003801
*RES
1 \$790:1 \$790:2 15.829900
2 \$790:1 \$790:3 26.929500
3 \$790:1 \$790:4 13.884900
4 \$790:1 \$790:5 23.112000
5 \$790:1 \$790:6 25.697900
6 \$790:1 \$790:7 29.099300
*END

*D_NET \$791 2.456407
*CAP
1 \$791:1 2.451119
2 \$791:1 _011_:1 0.003801
3 \$791:1 clknet_2_1__leaf_clk:1 0.001487
*RES
1 \$791:1 \$791:2 29.823700
2 \$791:1 \$791:3 22.358100
3 \$791:1 \$791:4 5.543100
4 \$791:1 \$791:5 11.158400
5 \$791:1 \$791:6 22.218400
6 \$791:1 \$791:7 22.454800
*END

*D_NET \$792 0.880408
*CAP
1 \$792:1 0.876607
2 \$792:1 clknet_2_1__leaf_clk:1 0.003801
*RES
1 \$792:1 \$792:2 10.670300
2 \$792:1 \$792:3 10.946100
3 \$792:1 \$792:4 6.353500
4 \$792:1 \$792:5 10.633800
5 \$792:1 \$792:6 6.366200
6 \$792:1 \$792:7 10.936800
*END

*D_NET \$793 1.399719
*CAP
1 \$793:1 1.397954
2 \$793:1 c8_r 0.001765
*RES
1 \$793:1 \$793:2 15.829900
2 \$793:1 \$793:3 26.929500
3 \$793:1 \$793:4 13.884900
4 \$793:1 \$793:5 23.112000
5 \$793:1 \$793:6 25.697900
6 \$793:1 \$793:7 29.099300
*END

*D_NET \$795 2.456268
*CAP
1 \$795:1 2.451263
2 \$795:1 _009_\[15\]:1 0.005005
*RES
1 \$795:1 \$795:2 29.823700
2 \$795:1 \$795:3 22.358100
3 \$795:1 \$795:4 5.543100
4 \$795:1 \$795:5 11.158400
5 \$795:1 \$795:6 22.218400
6 \$795:1 \$795:7 22.454800
*END

*D_NET \$796 0.878539
*CAP
1 \$796:1 0.878539
*RES
1 \$796:1 \$796:2 10.670300
2 \$796:1 \$796:3 10.946100
3 \$796:1 \$796:4 6.353500
4 \$796:1 \$796:5 10.633800
5 \$796:1 \$796:6 6.366200
6 \$796:1 \$796:7 10.936800
*END

*D_NET \$797 1.398851
*CAP
1 \$797:1 1.398851
*RES
1 \$797:1 \$797:2 15.829900
2 \$797:1 \$797:3 26.929500
3 \$797:1 \$797:4 13.884900
4 \$797:1 \$797:5 23.112000
5 \$797:1 \$797:6 25.697900
6 \$797:1 \$797:7 29.099300
*END

*D_NET \$798 2.459333
*CAP
1 \$798:1 2.448095
2 \$798:1 _009_\[8\]:1 0.003801
3 \$798:1 _018_:1 0.003801
4 \$798:1 _049_:1 0.003636
*RES
1 \$798:1 \$798:2 29.823700
2 \$798:1 \$798:3 22.358100
3 \$798:1 \$798:4 5.543100
4 \$798:1 \$798:5 11.158400
5 \$798:1 \$798:6 22.218400
6 \$798:1 \$798:7 22.454800
*END

*D_NET \$799 0.880408
*CAP
1 \$799:1 0.876607
2 \$799:1 _018_:1 0.003801
*RES
1 \$799:1 \$799:2 10.670300
2 \$799:1 \$799:3 10.946100
3 \$799:1 \$799:4 6.353500
4 \$799:1 \$799:5 10.633800
5 \$799:1 \$799:6 6.366200
6 \$799:1 \$799:7 10.936800
*END

*D_NET \$800 1.402482
*CAP
1 \$800:1 1.395098
2 \$800:1 ph\[8\]:1 0.005619
3 \$800:1 q7:1 0.001765
*RES
1 \$800:1 \$800:2 15.829900
2 \$800:1 \$800:3 26.929500
3 \$800:1 \$800:4 13.884900
4 \$800:1 \$800:5 23.112000
5 \$800:1 \$800:6 25.697900
6 \$800:1 \$800:7 29.099300
*END

*D_NET \$801 2.460246
*CAP
1 \$801:1 2.447152
2 \$801:1 _009_\[2\]:1 0.003801
3 \$801:1 _009_\[3\]:1 0.003801
4 \$801:1 clknet_2_3__leaf_clk:1 0.004480
5 \$801:1 ph\[2\]:1 0.001012
*RES
1 \$801:1 \$801:2 29.823700
2 \$801:1 \$801:3 22.358100
3 \$801:1 \$801:4 5.543100
4 \$801:1 \$801:5 11.158400
5 \$801:1 \$801:6 22.218400
6 \$801:1 \$801:7 22.454800
*END

*D_NET \$802 0.880408
*CAP
1 \$802:1 0.876607
2 \$802:1 _009_\[3\]:1 0.003801
*RES
1 \$802:1 \$802:2 10.670300
2 \$802:1 \$802:3 10.946100
3 \$802:1 \$802:4 6.353500
4 \$802:1 \$802:5 10.633800
5 \$802:1 \$802:6 6.366200
6 \$802:1 \$802:7 10.936800
*END

*D_NET \$803 1.400720
*CAP
1 \$803:1 1.396919
2 \$803:1 ph\[2\]:1 0.003801
*RES
1 \$803:1 \$803:2 15.829900
2 \$803:1 \$803:3 26.929500
3 \$803:1 \$803:4 13.884900
4 \$803:1 \$803:5 23.112000
5 \$803:1 \$803:6 25.697900
6 \$803:1 \$803:7 29.099300
*END

*D_NET \$805 3.078845
*CAP
1 \$805:1 3.062842
2 \$805:1 _009_\[9\]:1 0.008400
3 \$805:1 clknet_2_1__leaf_clk:1 0.007603
*RES
1 \$805:1 \$805:2 87.702700
2 \$805:1 \$805:3 71.874500
3 \$805:1 \$805:4 28.396700
4 \$805:1 \$805:5 16.171300
5 \$805:1 \$805:6 37.693700
6 \$805:1 \$805:7 38.248800
7 \$805:1 \$805:8 51.646900
8 \$805:1 \$805:9 52.376700
*END

*D_NET \$806 0.987745
*CAP
1 \$806:1 0.980007
2 \$806:1 _025_:1 0.005702
3 \$806:1 ph\[9\]:1 0.002036
*RES
1 \$806:1 \$806:2 12.392500
2 \$806:1 \$806:3 14.858900
3 \$806:1 \$806:4 11.965000
4 \$806:1 \$806:5 5.885000
5 \$806:1 \$806:6 13.260000
6 \$806:1 \$806:7 6.064300
*END

*D_NET \$807 1.017192
*CAP
1 \$807:1 1.017192
*RES
1 \$807:1 \$807:2 10.182900
2 \$807:1 \$807:3 9.506900
3 \$807:1 \$807:4 8.476300
4 \$807:1 \$807:5 4.216200
5 \$807:1 \$807:6 8.414300
6 \$807:1 \$807:7 4.848000
*END

*D_NET \$808 3.072844
*CAP
1 \$808:1 3.069043
2 \$808:1 clknet_2_1__leaf_clk:1 0.003801
*RES
1 \$808:1 \$808:2 87.702700
2 \$808:1 \$808:3 71.874500
3 \$808:1 \$808:4 28.396700
4 \$808:1 \$808:5 16.171300
5 \$808:1 \$808:6 37.693700
6 \$808:1 \$808:7 38.248800
7 \$808:1 \$808:8 51.646900
8 \$808:1 \$808:9 52.376700
*END

*D_NET \$809 0.991173
*CAP
1 \$809:1 0.976464
2 \$809:1 clknet_2_1__leaf_clk:1 0.003801
3 \$809:1 start 0.010908
*RES
1 \$809:1 \$809:2 12.392500
2 \$809:1 \$809:3 14.858900
3 \$809:1 \$809:4 11.965000
4 \$809:1 \$809:5 5.885000
5 \$809:1 \$809:6 13.260000
6 \$809:1 \$809:7 6.064300
*END

*D_NET \$810 1.017192
*CAP
1 \$810:1 1.017192
*RES
1 \$810:1 \$810:2 10.182900
2 \$810:1 \$810:3 9.506900
3 \$810:1 \$810:4 8.476300
4 \$810:1 \$810:5 4.216200
5 \$810:1 \$810:6 8.414300
6 \$810:1 \$810:7 4.848000
*END

*D_NET \$811 3.073803
*CAP
1 \$811:1 3.068053
2 \$811:1 _009_\[14\]:1 0.005419
3 \$811:1 clknet_2_1__leaf_clk:1 0.000331
*RES
1 \$811:1 \$811:2 87.702700
2 \$811:1 \$811:3 71.874500
3 \$811:1 \$811:4 28.396700
4 \$811:1 \$811:5 16.171300
5 \$811:1 \$811:6 37.693700
6 \$811:1 \$811:7 38.248800
7 \$811:1 \$811:8 51.646900
8 \$811:1 \$811:9 52.376700
*END

*D_NET \$812 0.989304
*CAP
1 \$812:1 0.978396
2 \$812:1 clknet_2_1__leaf_clk:1 0.010908
*RES
1 \$812:1 \$812:2 12.392500
2 \$812:1 \$812:3 14.858900
3 \$812:1 \$812:4 11.965000
4 \$812:1 \$812:5 5.885000
5 \$812:1 \$812:6 13.260000
6 \$812:1 \$812:7 6.064300
*END

*D_NET \$813 1.019443
*CAP
1 \$813:1 1.014865
2 \$813:1 _021_:1 0.003884
3 \$813:1 ph\[14\]:1 0.000694
*RES
1 \$813:1 \$813:2 10.182900
2 \$813:1 \$813:3 9.506900
3 \$813:1 \$813:4 8.476300
4 \$813:1 \$813:5 4.216200
5 \$813:1 \$813:6 8.414300
6 \$813:1 \$813:7 4.848000
*END

*D_NET \$814 3.074877
*CAP
1 \$814:1 3.066943
2 \$814:1 _010_:1 0.007603
3 \$814:1 clknet_2_1__leaf_clk:1 0.000331
*RES
1 \$814:1 \$814:2 87.702700
2 \$814:1 \$814:3 71.874500
3 \$814:1 \$814:4 28.396700
4 \$814:1 \$814:5 16.171300
5 \$814:1 \$814:6 37.693700
6 \$814:1 \$814:7 38.248800
7 \$814:1 \$814:8 51.646900
8 \$814:1 \$814:9 52.376700
*END

*D_NET \$815 0.983940
*CAP
1 \$815:1 0.983940
*RES
1 \$815:1 \$815:2 12.392500
2 \$815:1 \$815:3 14.858900
3 \$815:1 \$815:4 11.965000
4 \$815:1 \$815:5 5.885000
5 \$815:1 \$815:6 13.260000
6 \$815:1 \$815:7 6.064300
*END

*D_NET \$816 1.019102
*CAP
1 \$816:1 1.015218
2 \$816:1 c8_r 0.003884
*RES
1 \$816:1 \$816:2 10.182900
2 \$816:1 \$816:3 9.506900
3 \$816:1 \$816:4 8.476300
4 \$816:1 \$816:5 4.216200
5 \$816:1 \$816:6 8.414300
6 \$816:1 \$816:7 4.848000
*END

*D_NET \$818 3.071680
*CAP
1 \$818:1 3.070246
2 \$818:1 _009_\[15\]:1 0.001434
*RES
1 \$818:1 \$818:2 87.702700
2 \$818:1 \$818:3 71.874500
3 \$818:1 \$818:4 28.396700
4 \$818:1 \$818:5 16.171300
5 \$818:1 \$818:6 37.693700
6 \$818:1 \$818:7 38.248800
7 \$818:1 \$818:8 51.646900
8 \$818:1 \$818:9 52.376700
*END

*D_NET \$819 0.983940
*CAP
1 \$819:1 0.983940
*RES
1 \$819:1 \$819:2 12.392500
2 \$819:1 \$819:3 14.858900
3 \$819:1 \$819:4 11.965000
4 \$819:1 \$819:5 5.885000
5 \$819:1 \$819:6 13.260000
6 \$819:1 \$819:7 6.064300
*END

*D_NET \$820 1.022589
*CAP
1 \$820:1 1.011613
2 \$820:1 clknet_2_3__leaf_clk:1 0.010976
*RES
1 \$820:1 \$820:2 10.182900
2 \$820:1 \$820:3 9.506900
3 \$820:1 \$820:4 8.476300
4 \$820:1 \$820:5 4.216200
5 \$820:1 \$820:6 8.414300
6 \$820:1 \$820:7 4.848000
*END

*D_NET \$821 3.075465
*CAP
1 \$821:1 3.066336
2 \$821:1 clknet_2_3__leaf_clk:1 0.009129
*RES
1 \$821:1 \$821:2 87.702700
2 \$821:1 \$821:3 71.874500
3 \$821:1 \$821:4 28.396700
4 \$821:1 \$821:5 16.171300
5 \$821:1 \$821:6 37.693700
6 \$821:1 \$821:7 38.248800
7 \$821:1 \$821:8 51.646900
8 \$821:1 \$821:9 52.376700
*END

*D_NET \$822 0.984941
*CAP
1 \$822:1 0.982905
2 \$822:1 _018_:1 0.002036
*RES
1 \$822:1 \$822:2 12.392500
2 \$822:1 \$822:3 14.858900
3 \$822:1 \$822:4 11.965000
4 \$822:1 \$822:5 5.885000
5 \$822:1 \$822:6 13.260000
6 \$822:1 \$822:7 6.064300
*END

*D_NET \$823 1.019102
*CAP
1 \$823:1 1.015218
2 \$823:1 q7:1 0.003884
*RES
1 \$823:1 \$823:2 10.182900
2 \$823:1 \$823:3 9.506900
3 \$823:1 \$823:4 8.476300
4 \$823:1 \$823:5 4.216200
5 \$823:1 \$823:6 8.414300
6 \$823:1 \$823:7 4.848000
*END

*D_NET \$824 3.085906
*CAP
1 \$824:1 3.055544
2 \$824:1 clknet_2_3__leaf_clk:1 0.030362
*RES
1 \$824:1 \$824:2 87.702700
2 \$824:1 \$824:3 71.874500
3 \$824:1 \$824:4 28.396700
4 \$824:1 \$824:5 16.171300
5 \$824:1 \$824:6 37.693700
6 \$824:1 \$824:7 38.248800
7 \$824:1 \$824:8 51.646900
8 \$824:1 \$824:9 52.376700
*END

*D_NET \$825 0.997034
*CAP
1 \$825:1 0.970407
2 \$825:1 _009_\[3\]:1 0.003801
3 \$825:1 clknet_2_3__leaf_clk:1 0.022826
*RES
1 \$825:1 \$825:2 12.392500
2 \$825:1 \$825:3 14.858900
3 \$825:1 \$825:4 11.965000
4 \$825:1 \$825:5 5.885000
5 \$825:1 \$825:6 13.260000
6 \$825:1 \$825:7 6.064300
*END

*D_NET \$826 1.019857
*CAP
1 \$826:1 1.014438
2 \$826:1 ph\[2\]:1 0.005419
*RES
1 \$826:1 \$826:2 10.182900
2 \$826:1 \$826:3 9.506900
3 \$826:1 \$826:4 8.476300
4 \$826:1 \$826:5 4.216200
5 \$826:1 \$826:6 8.414300
6 \$826:1 \$826:7 4.848000
*END

*D_NET \$850 1.204820
*CAP
1 \$850:1 1.204820
*RES
1 \$850:1 \$850:2 20.342600
2 \$850:1 \$850:3 25.239000
3 \$850:1 \$850:4 21.558900
4 \$850:1 \$850:5 17.533700
*END

*D_NET \$875 3.077246
*CAP
1 \$875:1 3.064494
2 \$875:1 _009_\[9\]:1 0.003801
3 \$875:1 clknet_2_1__leaf_clk:1 0.008951
*RES
1 \$875:1 \$875:2 87.702700
2 \$875:1 \$875:3 71.874500
3 \$875:1 \$875:4 28.396700
4 \$875:1 \$875:5 16.171300
5 \$875:1 \$875:6 37.693700
6 \$875:1 \$875:7 38.248800
7 \$875:1 \$875:8 51.646900
8 \$875:1 \$875:9 52.376700
*END

*D_NET \$876 0.878539
*CAP
1 \$876:1 0.878539
*RES
1 \$876:1 \$876:2 10.946100
2 \$876:1 \$876:3 10.670300
3 \$876:1 \$876:4 6.366200
4 \$876:1 \$876:5 6.353500
5 \$876:1 \$876:6 10.633800
6 \$876:1 \$876:7 10.936800
*END

*D_NET \$877 2.457770
*CAP
1 \$877:1 2.449712
2 \$877:1 clknet_2_1__leaf_clk:1 0.004392
3 \$877:1 ph\[9\]:1 0.003666
*RES
1 \$877:1 \$877:2 5.543100
2 \$877:1 \$877:3 11.158400
3 \$877:1 \$877:4 29.823700
4 \$877:1 \$877:5 22.358100
5 \$877:1 \$877:6 22.218400
6 \$877:1 \$877:7 22.454800
*END

*D_NET \$878 1.400720
*CAP
1 \$878:1 1.396919
2 \$878:1 ph\[9\]:1 0.003801
*RES
1 \$878:1 \$878:2 13.884900
2 \$878:1 \$878:3 25.697900
3 \$878:1 \$878:4 15.829900
4 \$878:1 \$878:5 23.112000
5 \$878:1 \$878:6 26.929500
6 \$878:1 \$878:7 29.099300
*END

*D_NET \$879 3.074713
*CAP
1 \$879:1 3.067111
2 \$879:1 _020_:1 0.003801
3 \$879:1 clknet_2_1__leaf_clk:1 0.003801
*RES
1 \$879:1 \$879:2 87.702700
2 \$879:1 \$879:3 71.874500
3 \$879:1 \$879:4 28.396700
4 \$879:1 \$879:5 16.171300
5 \$879:1 \$879:6 37.693700
6 \$879:1 \$879:7 38.248800
7 \$879:1 \$879:8 51.646900
8 \$879:1 \$879:9 52.376700
*END

*D_NET \$880 0.878539
*CAP
1 \$880:1 0.878539
*RES
1 \$880:1 \$880:2 10.946100
2 \$880:1 \$880:3 10.670300
3 \$880:1 \$880:4 6.366200
4 \$880:1 \$880:5 6.353500
5 \$880:1 \$880:6 10.633800
6 \$880:1 \$880:7 10.936800
*END

*D_NET \$881 2.453807
*CAP
1 \$881:1 2.453807
*RES
1 \$881:1 \$881:2 5.543100
2 \$881:1 \$881:3 11.158400
3 \$881:1 \$881:4 29.823700
4 \$881:1 \$881:5 22.358100
5 \$881:1 \$881:6 22.218400
6 \$881:1 \$881:7 22.454800
*END

*D_NET \$882 1.399852
*CAP
1 \$882:1 1.397816
2 \$882:1 clknet_2_0__leaf_clk:1 0.002036
*RES
1 \$882:1 \$882:2 13.884900
2 \$882:1 \$882:3 25.697900
3 \$882:1 \$882:4 15.829900
4 \$882:1 \$882:5 23.112000
5 \$882:1 \$882:6 26.929500
6 \$882:1 \$882:7 29.099300
*END

*D_NET \$883 2.582912
*CAP
1 \$883:1 2.582912
*RES
1 \$883:1 \$883:2 20.949700
2 \$883:1 \$883:3 13.190700
3 \$883:1 \$883:4 12.954000
4 \$883:1 \$883:5 31.420500
5 \$883:1 \$883:6 31.909200
6 \$883:1 \$883:7 13.190700
7 \$883:1 \$883:8 21.388300
8 \$883:1 \$883:9 12.954000
9 \$883:1 \$883:10 31.909200
10 \$883:1 \$883:11 21.388300
11 \$883:1 \$883:12 31.420500
12 \$883:1 \$883:13 20.949700
*END

*D_NET \$885 3.074713
*CAP
1 \$885:1 3.067111
2 \$885:1 _009_\[14\]:1 0.003801
3 \$885:1 clknet_2_1__leaf_clk:1 0.003801
*RES
1 \$885:1 \$885:2 87.702700
2 \$885:1 \$885:3 71.874500
3 \$885:1 \$885:4 28.396700
4 \$885:1 \$885:5 16.171300
5 \$885:1 \$885:6 37.693700
6 \$885:1 \$885:7 38.248800
7 \$885:1 \$885:8 51.646900
8 \$885:1 \$885:9 52.376700
*END

*D_NET \$886 0.878539
*CAP
1 \$886:1 0.878539
*RES
1 \$886:1 \$886:2 10.946100
2 \$886:1 \$886:3 10.670300
3 \$886:1 \$886:4 6.366200
4 \$886:1 \$886:5 6.353500
5 \$886:1 \$886:6 10.633800
6 \$886:1 \$886:7 10.936800
*END

*D_NET \$887 2.453807
*CAP
1 \$887:1 2.453807
*RES
1 \$887:1 \$887:2 5.543100
2 \$887:1 \$887:3 11.158400
3 \$887:1 \$887:4 29.823700
4 \$887:1 \$887:5 22.358100
5 \$887:1 \$887:6 22.218400
6 \$887:1 \$887:7 22.454800
*END

*D_NET \$888 1.398851
*CAP
1 \$888:1 1.398851
*RES
1 \$888:1 \$888:2 13.884900
2 \$888:1 \$888:3 25.697900
3 \$888:1 \$888:4 15.829900
4 \$888:1 \$888:5 23.112000
5 \$888:1 \$888:6 26.929500
6 \$888:1 \$888:7 29.099300
*END

*D_NET \$889 1.092280
*CAP
1 \$889:1 1.084678
2 \$889:1 ph\[14\]:1 0.003801
3 \$889:1 q3:1 0.003801
*RES
1 \$889:1 \$889:2 10.976900
2 \$889:1 \$889:3 11.670100
3 \$889:1 \$889:4 7.453900
4 \$889:1 \$889:5 10.527400
5 \$889:1 \$889:6 6.802500
6 \$889:1 \$889:7 10.031200
*END

*D_NET \$890 3.074713
*CAP
1 \$890:1 3.067111
2 \$890:1 _010_:1 0.003801
3 \$890:1 clknet_2_1__leaf_clk:1 0.003801
*RES
1 \$890:1 \$890:2 87.702700
2 \$890:1 \$890:3 71.874500
3 \$890:1 \$890:4 28.396700
4 \$890:1 \$890:5 16.171300
5 \$890:1 \$890:6 37.693700
6 \$890:1 \$890:7 38.248800
7 \$890:1 \$890:8 51.646900
8 \$890:1 \$890:9 52.376700
*END

*D_NET \$891 0.878539
*CAP
1 \$891:1 0.878539
*RES
1 \$891:1 \$891:2 10.946100
2 \$891:1 \$891:3 10.670300
3 \$891:1 \$891:4 6.366200
4 \$891:1 \$891:5 6.353500
5 \$891:1 \$891:6 10.633800
6 \$891:1 \$891:7 10.936800
*END

*D_NET \$892 2.453807
*CAP
1 \$892:1 2.453807
*RES
1 \$892:1 \$892:2 5.543100
2 \$892:1 \$892:3 11.158400
3 \$892:1 \$892:4 29.823700
4 \$892:1 \$892:5 22.358100
5 \$892:1 \$892:6 22.218400
6 \$892:1 \$892:7 22.454800
*END

*D_NET \$893 1.398851
*CAP
1 \$893:1 1.398851
*RES
1 \$893:1 \$893:2 13.884900
2 \$893:1 \$893:3 25.697900
3 \$893:1 \$893:4 15.829900
4 \$893:1 \$893:5 23.112000
5 \$893:1 \$893:6 26.929500
6 \$893:1 \$893:7 29.099300
*END

*D_NET \$894 3.074713
*CAP
1 \$894:1 3.067111
2 \$894:1 _028_:1 0.003801
3 \$894:1 clknet_2_3__leaf_clk:1 0.003801
*RES
1 \$894:1 \$894:2 87.702700
2 \$894:1 \$894:3 71.874500
3 \$894:1 \$894:4 28.396700
4 \$894:1 \$894:5 16.171300
5 \$894:1 \$894:6 37.693700
6 \$894:1 \$894:7 38.248800
7 \$894:1 \$894:8 51.646900
8 \$894:1 \$894:9 52.376700
*END

*D_NET \$895 0.878539
*CAP
1 \$895:1 0.878539
*RES
1 \$895:1 \$895:2 10.946100
2 \$895:1 \$895:3 10.670300
3 \$895:1 \$895:4 6.366200
4 \$895:1 \$895:5 6.353500
5 \$895:1 \$895:6 10.633800
6 \$895:1 \$895:7 10.936800
*END

*D_NET \$896 2.453807
*CAP
1 \$896:1 2.453807
*RES
1 \$896:1 \$896:2 5.543100
2 \$896:1 \$896:3 11.158400
3 \$896:1 \$896:4 29.823700
4 \$896:1 \$896:5 22.358100
5 \$896:1 \$896:6 22.218400
6 \$896:1 \$896:7 22.454800
*END

*D_NET \$897 1.398851
*CAP
1 \$897:1 1.398851
*RES
1 \$897:1 \$897:2 13.884900
2 \$897:1 \$897:3 25.697900
3 \$897:1 \$897:4 15.829900
4 \$897:1 \$897:5 23.112000
5 \$897:1 \$897:6 26.929500
6 \$897:1 \$897:7 29.099300
*END

*D_NET \$898 3.074892
*CAP
1 \$898:1 3.066928
2 \$898:1 clknet_2_3__leaf_clk:1 0.007964
*RES
1 \$898:1 \$898:2 87.702700
2 \$898:1 \$898:3 71.874500
3 \$898:1 \$898:4 28.396700
4 \$898:1 \$898:5 16.171300
5 \$898:1 \$898:6 37.693700
6 \$898:1 \$898:7 38.248800
7 \$898:1 \$898:8 51.646900
8 \$898:1 \$898:9 52.376700
*END

*D_NET \$899 0.878539
*CAP
1 \$899:1 0.878539
*RES
1 \$899:1 \$899:2 10.946100
2 \$899:1 \$899:3 10.670300
3 \$899:1 \$899:4 6.366200
4 \$899:1 \$899:5 6.353500
5 \$899:1 \$899:6 10.633800
6 \$899:1 \$899:7 10.936800
*END

*D_NET \$900 2.455676
*CAP
1 \$900:1 2.451875
2 \$900:1 q7:1 0.003801
*RES
1 \$900:1 \$900:2 5.543100
2 \$900:1 \$900:3 11.158400
3 \$900:1 \$900:4 29.823700
4 \$900:1 \$900:5 22.358100
5 \$900:1 \$900:6 22.218400
6 \$900:1 \$900:7 22.454800
*END

*D_NET \$901 1.398851
*CAP
1 \$901:1 1.398851
*RES
1 \$901:1 \$901:2 13.884900
2 \$901:1 \$901:3 25.697900
3 \$901:1 \$901:4 15.829900
4 \$901:1 \$901:5 23.112000
5 \$901:1 \$901:6 26.929500
6 \$901:1 \$901:7 29.099300
*END

*D_NET \$902 3.074713
*CAP
1 \$902:1 3.067111
2 \$902:1 _009_\[3\]:1 0.003801
3 \$902:1 clknet_2_3__leaf_clk:1 0.003801
*RES
1 \$902:1 \$902:2 87.702700
2 \$902:1 \$902:3 71.874500
3 \$902:1 \$902:4 28.396700
4 \$902:1 \$902:5 16.171300
5 \$902:1 \$902:6 37.693700
6 \$902:1 \$902:7 38.248800
7 \$902:1 \$902:8 51.646900
8 \$902:1 \$902:9 52.376700
*END

*D_NET \$903 0.878539
*CAP
1 \$903:1 0.878539
*RES
1 \$903:1 \$903:2 10.946100
2 \$903:1 \$903:3 10.670300
3 \$903:1 \$903:4 6.366200
4 \$903:1 \$903:5 6.353500
5 \$903:1 \$903:6 10.633800
6 \$903:1 \$903:7 10.936800
*END

*D_NET \$904 2.453807
*CAP
1 \$904:1 2.453807
*RES
1 \$904:1 \$904:2 5.543100
2 \$904:1 \$904:3 11.158400
3 \$904:1 \$904:4 29.823700
4 \$904:1 \$904:5 22.358100
5 \$904:1 \$904:6 22.218400
6 \$904:1 \$904:7 22.454800
*END

*D_NET \$905 1.399013
*CAP
1 \$905:1 1.398685
2 \$905:1 ph\[3\]:1 0.000328
*RES
1 \$905:1 \$905:2 13.884900
2 \$905:1 \$905:3 25.697900
3 \$905:1 \$905:4 15.829900
4 \$905:1 \$905:5 23.112000
5 \$905:1 \$905:6 26.929500
6 \$905:1 \$905:7 29.099300
*END

*D_NET \$906 0.983940
*CAP
1 \$906:1 0.983940
*RES
1 \$906:1 \$906:2 14.858900
2 \$906:1 \$906:3 12.392500
3 \$906:1 \$906:4 13.260000
4 \$906:1 \$906:5 6.064300
5 \$906:1 \$906:6 11.965000
6 \$906:1 \$906:7 5.885000
*END

*D_NET \$907 1.017192
*CAP
1 \$907:1 1.017192
*RES
1 \$907:1 \$907:2 9.506900
2 \$907:1 \$907:3 10.182900
3 \$907:1 \$907:4 8.476300
4 \$907:1 \$907:5 4.216200
5 \$907:1 \$907:6 8.414300
6 \$907:1 \$907:7 4.848000
*END

*D_NET \$908 0.989496
*CAP
1 \$908:1 0.978198
2 \$908:1 _020_:1 0.011298
*RES
1 \$908:1 \$908:2 14.858900
2 \$908:1 \$908:3 12.392500
3 \$908:1 \$908:4 13.260000
4 \$908:1 \$908:5 6.064300
5 \$908:1 \$908:6 11.965000
6 \$908:1 \$908:7 5.885000
*END

*D_NET \$909 1.017192
*CAP
1 \$909:1 1.017192
*RES
1 \$909:1 \$909:2 9.506900
2 \$909:1 \$909:3 10.182900
3 \$909:1 \$909:4 8.476300
4 \$909:1 \$909:5 4.216200
5 \$909:1 \$909:6 8.414300
6 \$909:1 \$909:7 4.848000
*END

*D_NET \$910 0.983940
*CAP
1 \$910:1 0.983940
*RES
1 \$910:1 \$910:2 14.858900
2 \$910:1 \$910:3 12.392500
3 \$910:1 \$910:4 13.260000
4 \$910:1 \$910:5 6.064300
5 \$910:1 \$910:6 11.965000
6 \$910:1 \$910:7 5.885000
*END

*D_NET \$911 1.017192
*CAP
1 \$911:1 1.017192
*RES
1 \$911:1 \$911:2 9.506900
2 \$911:1 \$911:3 10.182900
3 \$911:1 \$911:4 8.476300
4 \$911:1 \$911:5 4.216200
5 \$911:1 \$911:6 8.414300
6 \$911:1 \$911:7 4.848000
*END

*D_NET \$912 0.983940
*CAP
1 \$912:1 0.983940
*RES
1 \$912:1 \$912:2 14.858900
2 \$912:1 \$912:3 12.392500
3 \$912:1 \$912:4 13.260000
4 \$912:1 \$912:5 6.064300
5 \$912:1 \$912:6 11.965000
6 \$912:1 \$912:7 5.885000
*END

*D_NET \$913 1.017192
*CAP
1 \$913:1 1.017192
*RES
1 \$913:1 \$913:2 9.506900
2 \$913:1 \$913:3 10.182900
3 \$913:1 \$913:4 8.476300
4 \$913:1 \$913:5 4.216200
5 \$913:1 \$913:6 8.414300
6 \$913:1 \$913:7 4.848000
*END

*D_NET \$914 0.983940
*CAP
1 \$914:1 0.983940
*RES
1 \$914:1 \$914:2 14.858900
2 \$914:1 \$914:3 12.392500
3 \$914:1 \$914:4 13.260000
4 \$914:1 \$914:5 6.064300
5 \$914:1 \$914:6 11.965000
6 \$914:1 \$914:7 5.885000
*END

*D_NET \$915 1.017192
*CAP
1 \$915:1 1.017192
*RES
1 \$915:1 \$915:2 9.506900
2 \$915:1 \$915:3 10.182900
3 \$915:1 \$915:4 8.476300
4 \$915:1 \$915:5 4.216200
5 \$915:1 \$915:6 8.414300
6 \$915:1 \$915:7 4.848000
*END

*D_NET \$916 0.994587
*CAP
1 \$916:1 0.972936
2 \$916:1 _018_:1 0.021651
*RES
1 \$916:1 \$916:2 14.858900
2 \$916:1 \$916:3 12.392500
3 \$916:1 \$916:4 13.260000
4 \$916:1 \$916:5 6.064300
5 \$916:1 \$916:6 11.965000
6 \$916:1 \$916:7 5.885000
*END

*D_NET \$917 1.018028
*CAP
1 \$917:1 1.016328
2 \$917:1 q7:1 0.001700
*RES
1 \$917:1 \$917:2 9.506900
2 \$917:1 \$917:3 10.182900
3 \$917:1 \$917:4 8.476300
4 \$917:1 \$917:5 4.216200
5 \$917:1 \$917:6 8.414300
6 \$917:1 \$917:7 4.848000
*END

*D_NET \$918 0.989496
*CAP
1 \$918:1 0.978198
2 \$918:1 _009_\[3\]:1 0.011298
*RES
1 \$918:1 \$918:2 14.858900
2 \$918:1 \$918:3 12.392500
3 \$918:1 \$918:4 13.260000
4 \$918:1 \$918:5 6.064300
5 \$918:1 \$918:6 11.965000
6 \$918:1 \$918:7 5.885000
*END

*D_NET \$919 1.017192
*CAP
1 \$919:1 1.017192
*RES
1 \$919:1 \$919:2 9.506900
2 \$919:1 \$919:3 10.182900
3 \$919:1 \$919:4 8.476300
4 \$919:1 \$919:5 4.216200
5 \$919:1 \$919:6 8.414300
6 \$919:1 \$919:7 4.848000
*END

*D_NET VDD 30.434008
*CONN
*P VDD B
*CAP
1 VDD:1 26.338133
2 VDD:1 _000_:1 0.009917
3 VDD:1 _001_:1 0.019833
4 VDD:1 _003_:1 0.009917
5 VDD:1 _004_:1 0.009917
6 VDD:1 _005_:1 0.009917
7 VDD:1 _006_:1 0.019833
8 VDD:1 _008_:1 0.024579
9 VDD:1 _009_\[10\]:1 0.009917
10 VDD:1 _009_\[11\]:1 0.009917
11 VDD:1 _009_\[13\]:1 0.009917
12 VDD:1 _009_\[14\]:1 0.009917
13 VDD:1 _009_\[1\]:1 0.044412
14 VDD:1 _009_\[2\]:1 0.043485
15 VDD:1 _009_\[3\]:1 0.039666
16 VDD:1 _009_\[4\]:1 0.016603
17 VDD:1 _009_\[7\]:1 0.030127
18 VDD:1 _009_\[8\]:1 0.009917
19 VDD:1 _009_\[9\]:1 0.009917
20 VDD:1 _010_:1 0.014397
21 VDD:1 _011_:1 0.019833
22 VDD:1 _012_:1 0.009917
23 VDD:1 _013_:1 0.019833
24 VDD:1 _014_:1 0.009917
25 VDD:1 _015_:1 0.024313
26 VDD:1 _016_:1 0.009917
27 VDD:1 _017_:1 0.019833
28 VDD:1 _018_:1 0.009917
29 VDD:1 _020_:1 0.009917
30 VDD:1 _021_:1 0.026519
31 VDD:1 _022_:1 0.009917
32 VDD:1 _023_:1 0.009917
33 VDD:1 _024_:1 0.034495
34 VDD:1 _025_:1 0.009917
35 VDD:1 _026_:1 0.009917
36 VDD:1 _028_:1 0.012360
37 VDD:1 _030_:1 0.019833
38 VDD:1 _031_:1 0.066851
39 VDD:1 _033_:1 0.030849
40 VDD:1 _035_:1 0.009917
41 VDD:1 _036_:1 0.019833
42 VDD:1 _037_:1 0.029750
43 VDD:1 _038_:1 0.038692
44 VDD:1 _039_:1 0.009917
45 VDD:1 _040_:1 0.019833
46 VDD:1 _041_:1 0.009917
47 VDD:1 _042_:1 0.034212
48 VDD:1 _043_:1 0.024840
49 VDD:1 _044_:1 0.036715
50 VDD:1 _046_:1 0.009917
51 VDD:1 _047_:1 0.013033
52 VDD:1 _048_:1 0.009917
53 VDD:1 _049_:1 0.014397
54 VDD:1 _050_:1 0.009917
55 VDD:1 _051_:1 0.029089
56 VDD:1 _052_:1 0.034757
57 VDD:1 _053_:1 0.009917
58 VDD:1 _054_:1 0.013718
59 VDD:1 _057_:1 0.029750
60 VDD:1 _058_:1 0.009917
61 VDD:1 _059_:1 0.009917
62 VDD:1 _061_:1 0.027335
63 VDD:1 _062_:1 0.014397
64 VDD:1 c0_r 0.063321
65 VDD:1 c1_r 0.041806
66 VDD:1 c2_r 0.039924
67 VDD:1 c3_r 0.025609
68 VDD:1 c4_r 0.015692
69 VDD:1 c5_r 0.042212
70 VDD:1 c7_r 0.030355
71 VDD:1 c8_r 0.009917
72 VDD:1 c9_r 0.009917
73 VDD:1 clk 0.012709
74 VDD:1 clknet_0_clk:1 0.054107
75 VDD:1 clknet_2_0__leaf_clk:1 0.108126
76 VDD:1 clknet_2_1__leaf_clk:1 0.098351
77 VDD:1 clknet_2_2__leaf_clk:1 0.089988
78 VDD:1 clknet_2_3__leaf_clk:1 0.103020
79 VDD:1 cmp 0.081716
80 VDD:1 eng1:1 0.031092
81 VDD:1 eng2:1 0.009917
82 VDD:1 eng4:1 0.044129
83 VDD:1 eng5:1 0.037848
84 VDD:1 eng6:1 0.023534
85 VDD:1 eng7:1 0.021326
86 VDD:1 eng8:1 0.029750
87 VDD:1 eng9:1 0.067362
88 VDD:1 mode 0.101791
89 VDD:1 ph\[0\]:1 0.003801
90 VDD:1 ph\[10\]:1 0.019833
91 VDD:1 ph\[11\]:1 0.055689
92 VDD:1 ph\[12\]:1 0.056542
93 VDD:1 ph\[13\]:1 0.069416
94 VDD:1 ph\[14\]:1 0.117670
95 VDD:1 ph[15] 0.019833
96 VDD:1 ph\[1\]:1 0.090784
97 VDD:1 ph\[2\]:1 0.037352
98 VDD:1 ph\[3\]:1 0.055136
99 VDD:1 ph\[4\]:1 0.009917
100 VDD:1 ph\[5\]:1 0.045972
101 VDD:1 ph\[6\]:1 0.024840
102 VDD:1 ph\[7\]:1 0.031697
103 VDD:1 ph\[8\]:1 0.013067
104 VDD:1 ph\[9\]:1 0.027436
105 VDD:1 q0:1 0.041768
106 VDD:1 q1:1 0.113639
107 VDD:1 q2:1 0.029750
108 VDD:1 q3:1 0.070649
109 VDD:1 q4:1 0.039764
110 VDD:1 q5:1 0.068880
111 VDD:1 q6:1 0.064127
112 VDD:1 q7:1 0.104941
113 VDD:1 q8:1 0.042458
114 VDD:1 q9:1 0.041182
115 VDD:1 rel_n_16p 0.009917
116 VDD:1 rel_n_2n 0.009917
117 VDD:1 rel_n_2p 0.009917
118 VDD:1 rel_n_4n 0.009917
119 VDD:1 rel_n_4p 0.009917
120 VDD:1 rel_n_64p 0.015925
121 VDD:1 rel_n_8p 0.009917
122 VDD:1 sel_hi_n_128p 0.021176
123 VDD:1 sel_hi_n_16p 0.019833
124 VDD:1 sel_hi_n_1n 0.009917
125 VDD:1 sel_hi_n_256p 0.003925
126 VDD:1 sel_hi_n_2p 0.009917
127 VDD:1 sel_hi_n_32p 0.009917
128 VDD:1 sel_hi_n_64p 0.025390
129 VDD:1 sel_in_n 0.043467
130 VDD:1 sel_lo_n_128n 0.009917
131 VDD:1 sel_lo_n_1n 0.009917
132 VDD:1 sel_lo_n_256n 0.009917
133 VDD:1 sel_lo_n_256p 0.009917
134 VDD:1 sel_lo_n_32n 0.009917
135 VDD:1 start 0.151978
*RES
1 VDD:1 VDD:2 0.320100
2 VDD:1 VDD:3 0.316700
3 VDD:1 VDD:4 0.309500
4 VDD:1 VDD:5 0.309500
5 VDD:1 VDD:6 0.306900
6 VDD:1 VDD:7 0.301700
7 VDD:1 VDD:8 0.299300
8 VDD:1 VDD:9 0.295600
9 VDD:1 VDD:10 0.290700
10 VDD:1 VDD:11 0.285900
11 VDD:1 VDD:12 0.283300
12 VDD:1 VDD:13 0.279100
13 VDD:1 VDD:14 0.273300
14 VDD:1 VDD:15 0.273300
15 VDD:1 VDD:16 0.148500
16 VDD:1 VDD:17 0.148500
17 VDD:1 VDD:18 0.144600
18 VDD:1 VDD:19 0.122700
19 VDD:1 VDD:20 0.118200
20 VDD:1 VDD:21 0.075600
21 VDD:1 VDD:22 0.072200
22 VDD:1 VDD:23 0.068100
23 VDD:1 VDD:24 0.068100
24 VDD:1 VDD:25 0.048300
25 VDD:1 VDD:26 0.048300
26 VDD:1 VDD:27 0.051700
27 VDD:1 VDD:28 0.055400
28 VDD:1 VDD:29 0.150700
29 VDD:1 VDD:30 0.150700
30 VDD:1 VDD:31 0.154700
31 VDD:1 VDD:32 0.158100
32 VDD:1 VDD:33 0.292700
33 VDD:1 VDD:34 0.292700
34 VDD:1 VDD:35 0.266500
35 VDD:1 VDD:36 0.262300
36 VDD:1 VDD:37 0.126100
37 VDD:1 VDD:38 0.126100
38 VDD:1 VDD:39 0.122600
39 VDD:1 VDD:40 0.118200
40 VDD:1 VDD:41 0.276300
41 VDD:1 VDD:42 0.276300
42 VDD:1 VDD:43 0.279800
43 VDD:1 VDD:44 0.283200
44 VDD:1 VDD:45 0.059500
45 VDD:1 VDD:46 0.034200
46 VDD:1 VDD:47 0.095800
47 VDD:1 VDD:48 0.079000
48 VDD:1 VDD:49 0.083400
49 VDD:1 VDD:50 0.100200
50 VDD:1 VDD:51 0.055000
51 VDD:1 VDD:52 0.038600
52 VDD:1 VDD:53 0.103600
53 VDD:1 VDD:54 0.126100
54 VDD:1 VDD:55 0.042000
55 VDD:1 VDD:56 0.008900
56 VDD:1 VDD:57 0.086800
57 VDD:1 VDD:58 0.051600
58 VDD:1 VDD:59 0.032900
59 VDD:1 VDD:60 0.103600
60 VDD:1 VDD:61 0.126100
61 VDD:1 VDD:62 0.042000
62 VDD:1 VDD:63 0.008900
63 VDD:1 VDD:64 0.086800
64 VDD:1 VDD:65 0.051600
65 VDD:1 VDD:66 0.032900
66 VDD:1 VDD:67 0.191300
67 VDD:1 VDD:68 0.182600
68 VDD:1 VDD:69 0.248100
69 VDD:1 VDD:70 0.178500
70 VDD:1 VDD:71 0.243900
71 VDD:1 VDD:72 0.195400
72 VDD:1 VDD:73 0.221700
73 VDD:1 VDD:74 0.217700
74 VDD:1 VDD:75 0.152300
75 VDD:1 VDD:76 0.221700
76 VDD:1 VDD:77 0.217700
77 VDD:1 VDD:78 0.152300
78 VDD:1 VDD:79 0.118900
79 VDD:1 VDD:80 0.124500
80 VDD:1 VDD:81 0.133500
81 VDD:1 VDD:82 0.120800
82 VDD:1 VDD:83 0.137300
83 VDD:1 VDD:84 0.115200
84 VDD:1 VDD:85 0.140700
85 VDD:1 VDD:86 0.111700
86 VDD:1 VDD:87 0.117400
87 VDD:1 VDD:88 0.140700
88 VDD:1 VDD:89 0.111700
89 VDD:1 VDD:90 0.117400
90 VDD:1 VDD:91 0.044200
91 VDD:1 VDD:92 0.030800
92 VDD:1 VDD:93 0.055000
93 VDD:1 VDD:94 0.085300
94 VDD:1 VDD:95 0.076000
95 VDD:1 VDD:96 0.044200
96 VDD:1 VDD:97 0.030800
97 VDD:1 VDD:98 0.055000
98 VDD:1 VDD:99 0.085300
99 VDD:1 VDD:100 0.076000
100 VDD:1 VDD:101 0.040100
101 VDD:1 VDD:102 0.071800
102 VDD:1 VDD:103 0.081200
103 VDD:1 VDD:104 0.059100
104 VDD:1 VDD:105 0.034900
105 VDD:1 VDD:106 0.068400
106 VDD:1 VDD:107 0.062500
107 VDD:1 VDD:108 0.036700
108 VDD:1 VDD:109 0.038300
109 VDD:1 VDD:110 0.077800
110 VDD:1 VDD:111 0.040900
111 VDD:1 VDD:112 0.016800
112 VDD:1 VDD:113 0.036300
113 VDD:1 VDD:114 0.012200
114 VDD:1 VDD:115 0.130300
115 VDD:1 VDD:116 0.102200
116 VDD:1 VDD:117 0.087300
117 VDD:1 VDD:118 0.014600
118 VDD:1 VDD:119 0.133400
119 VDD:1 VDD:120 0.045600
120 VDD:1 VDD:121 0.025700
121 VDD:1 VDD:122 0.019500
122 VDD:1 VDD:123 0.004200
123 VDD:1 VDD:124 0.003900
124 VDD:1 VDD:125 0.083400
125 VDD:1 VDD:126 0.137300
126 VDD:1 VDD:127 0.007200
127 VDD:1 VDD:128 0.049500
128 VDD:1 VDD:129 0.098300
129 VDD:1 VDD:130 0.126400
130 VDD:1 VDD:131 0.023400
131 VDD:1 VDD:132 0.007000
132 VDD:1 VDD:133 0.010800
133 VDD:1 VDD:134 0.021800
134 VDD:1 VDD:135 0.083400
135 VDD:1 VDD:136 0.137300
136 VDD:1 VDD:137 0.007200
137 VDD:1 VDD:138 0.049500
138 VDD:1 VDD:139 0.098300
139 VDD:1 VDD:140 0.126400
140 VDD:1 VDD:141 0.023400
141 VDD:1 VDD:142 0.007000
142 VDD:1 VDD:143 0.010800
143 VDD:1 VDD:144 0.021800
144 VDD:1 VDD:145 0.139500
145 VDD:1 VDD:146 0.019800
146 VDD:1 VDD:147 0.256500
147 VDD:1 VDD:148 0.224000
148 VDD:1 VDD:149 0.188400
149 VDD:1 VDD:150 0.266300
150 VDD:1 VDD:151 0.185500
151 VDD:1 VDD:152 0.178400
152 VDD:1 VDD:153 0.178000
153 VDD:1 VDD:154 0.262800
154 VDD:1 VDD:155 0.253900
155 VDD:1 VDD:156 0.308100
156 VDD:1 VDD:157 0.296500
157 VDD:1 VDD:158 0.289000
158 VDD:1 VDD:159 0.139500
159 VDD:1 VDD:160 0.019800
160 VDD:1 VDD:161 0.256500
161 VDD:1 VDD:162 0.224000
162 VDD:1 VDD:163 0.188400
163 VDD:1 VDD:164 0.266300
164 VDD:1 VDD:165 0.185500
165 VDD:1 VDD:166 0.178400
166 VDD:1 VDD:167 0.178000
167 VDD:1 VDD:168 0.262800
168 VDD:1 VDD:169 0.253900
169 VDD:1 VDD:170 0.308100
170 VDD:1 VDD:171 0.296500
171 VDD:1 VDD:172 0.289000
172 VDD:1 VDD:173 0.218200
173 VDD:1 VDD:174 0.183800
174 VDD:1 VDD:175 0.302300
175 VDD:1 VDD:176 0.214000
176 VDD:1 VDD:177 0.298100
177 VDD:1 VDD:178 0.188000
178 VDD:1 VDD:179 0.175900
179 VDD:1 VDD:180 0.295500
180 VDD:1 VDD:181 0.241300
181 VDD:1 VDD:182 0.269100
182 VDD:1 VDD:183 0.190600
183 VDD:1 VDD:184 0.211400
184 VDD:1 VDD:185 0.198000
185 VDD:1 VDD:186 0.290800
186 VDD:1 VDD:187 0.206700
187 VDD:1 VDD:188 0.273800
188 VDD:1 VDD:189 0.171100
189 VDD:1 VDD:190 0.202800
190 VDD:1 VDD:191 0.236600
191 VDD:1 VDD:192 0.195300
192 VDD:1 VDD:193 0.201700
193 VDD:1 VDD:194 0.231600
194 VDD:1 VDD:195 0.166200
195 VDD:1 VDD:196 0.200300
196 VDD:1 VDD:197 0.278800
197 VDD:1 VDD:198 0.285800
198 VDD:1 VDD:199 0.207800
199 VDD:1 VDD:200 0.228000
200 VDD:1 VDD:201 0.211400
201 VDD:1 VDD:202 0.282400
202 VDD:1 VDD:203 0.162600
203 VDD:1 VDD:204 0.203900
204 VDD:1 VDD:205 0.198100
205 VDD:1 VDD:206 0.282200
206 VDD:1 VDD:207 0.225500
207 VDD:1 VDD:208 0.279700
208 VDD:1 VDD:209 0.213900
209 VDD:1 VDD:210 0.195600
210 VDD:1 VDD:211 0.206400
211 VDD:1 VDD:212 0.160100
212 VDD:1 VDD:213 0.284900
213 VDD:1 VDD:214 0.154900
214 VDD:1 VDD:215 0.211500
215 VDD:1 VDD:216 0.290000
216 VDD:1 VDD:217 0.219000
217 VDD:1 VDD:218 0.190500
218 VDD:1 VDD:219 0.220400
219 VDD:1 VDD:220 0.274600
220 VDD:1 VDD:221 0.214200
221 VDD:1 VDD:222 0.187800
222 VDD:1 VDD:223 0.271900
223 VDD:1 VDD:224 0.214200
224 VDD:1 VDD:225 0.187800
225 VDD:1 VDD:226 0.271900
226 VDD:1 VDD:227 0.228900
227 VDD:1 VDD:228 0.221400
228 VDD:1 VDD:229 0.264700
229 VDD:1 VDD:230 0.210500
230 VDD:1 VDD:231 0.145100
231 VDD:1 VDD:232 0.180600
232 VDD:1 VDD:233 0.299900
233 VDD:1 VDD:234 0.177200
234 VDD:1 VDD:235 0.303300
235 VDD:1 VDD:236 0.261300
236 VDD:1 VDD:237 0.207100
237 VDD:1 VDD:238 0.232300
238 VDD:1 VDD:239 0.224800
239 VDD:1 VDD:240 0.141700
240 VDD:1 VDD:241 0.283200
241 VDD:1 VDD:242 0.279800
242 VDD:1 VDD:243 0.118200
243 VDD:1 VDD:244 0.122600
244 VDD:1 VDD:245 0.083400
245 VDD:1 VDD:246 0.100200
246 VDD:1 VDD:247 0.055000
247 VDD:1 VDD:248 0.038600
248 VDD:1 VDD:249 0.059500
249 VDD:1 VDD:250 0.034200
250 VDD:1 VDD:251 0.095800
251 VDD:1 VDD:252 0.079000
252 VDD:1 VDD:253 0.262300
253 VDD:1 VDD:254 0.266500
254 VDD:1 VDD:255 0.178500
255 VDD:1 VDD:256 0.243900
256 VDD:1 VDD:257 0.195400
257 VDD:1 VDD:258 0.191300
258 VDD:1 VDD:259 0.182600
259 VDD:1 VDD:260 0.248100
260 VDD:1 VDD:261 0.279100
261 VDD:1 VDD:262 0.283300
262 VDD:1 VDD:263 0.214000
263 VDD:1 VDD:264 0.298100
264 VDD:1 VDD:265 0.188000
265 VDD:1 VDD:266 0.218200
266 VDD:1 VDD:267 0.183800
267 VDD:1 VDD:268 0.302300
268 VDD:1 VDD:269 0.295600
269 VDD:1 VDD:270 0.299300
270 VDD:1 VDD:271 0.228000
271 VDD:1 VDD:272 0.211400
272 VDD:1 VDD:273 0.282400
273 VDD:1 VDD:274 0.162600
274 VDD:1 VDD:275 0.203900
275 VDD:1 VDD:276 0.198100
276 VDD:1 VDD:277 0.282200
277 VDD:1 VDD:278 0.201700
278 VDD:1 VDD:279 0.231600
279 VDD:1 VDD:280 0.166200
280 VDD:1 VDD:281 0.200300
281 VDD:1 VDD:282 0.278800
282 VDD:1 VDD:283 0.285800
283 VDD:1 VDD:284 0.207800
284 VDD:1 VDD:285 0.158100
285 VDD:1 VDD:286 0.154700
286 VDD:1 VDD:287 0.118200
287 VDD:1 VDD:288 0.122700
288 VDD:1 VDD:289 0.036300
289 VDD:1 VDD:290 0.012200
290 VDD:1 VDD:291 0.040900
291 VDD:1 VDD:292 0.016800
292 VDD:1 VDD:293 0.316700
293 VDD:1 VDD:294 0.320100
294 VDD:1 VDD:295 0.177200
295 VDD:1 VDD:296 0.303300
296 VDD:1 VDD:297 0.261300
297 VDD:1 VDD:298 0.207100
298 VDD:1 VDD:299 0.232300
299 VDD:1 VDD:300 0.224800
300 VDD:1 VDD:301 0.141700
301 VDD:1 VDD:302 0.228900
302 VDD:1 VDD:303 0.221400
303 VDD:1 VDD:304 0.264700
304 VDD:1 VDD:305 0.210500
305 VDD:1 VDD:306 0.145100
306 VDD:1 VDD:307 0.180600
307 VDD:1 VDD:308 0.299900
*END

*D_NET VDD 29.876285
*CONN
*P VDD B
*CAP
1 VDD:1 25.780410
2 VDD:1 _000_:1 0.009917
3 VDD:1 _001_:1 0.019833
4 VDD:1 _003_:1 0.009917
5 VDD:1 _004_:1 0.009917
6 VDD:1 _005_:1 0.009917
7 VDD:1 _006_:1 0.019833
8 VDD:1 _008_:1 0.024579
9 VDD:1 _009_\[10\]:1 0.009917
10 VDD:1 _009_\[11\]:1 0.009917
11 VDD:1 _009_\[13\]:1 0.009917
12 VDD:1 _009_\[14\]:1 0.009917
13 VDD:1 _009_\[1\]:1 0.044412
14 VDD:1 _009_\[2\]:1 0.043485
15 VDD:1 _009_\[3\]:1 0.039666
16 VDD:1 _009_\[4\]:1 0.016603
17 VDD:1 _009_\[7\]:1 0.030127
18 VDD:1 _009_\[8\]:1 0.009917
19 VDD:1 _009_\[9\]:1 0.009917
20 VDD:1 _010_:1 0.014397
21 VDD:1 _011_:1 0.019833
22 VDD:1 _012_:1 0.009917
23 VDD:1 _013_:1 0.019833
24 VDD:1 _014_:1 0.009917
25 VDD:1 _015_:1 0.024313
26 VDD:1 _016_:1 0.009917
27 VDD:1 _017_:1 0.019833
28 VDD:1 _018_:1 0.009917
29 VDD:1 _020_:1 0.009917
30 VDD:1 _021_:1 0.026519
31 VDD:1 _022_:1 0.009917
32 VDD:1 _023_:1 0.009917
33 VDD:1 _024_:1 0.034495
34 VDD:1 _025_:1 0.009917
35 VDD:1 _026_:1 0.009917
36 VDD:1 _028_:1 0.012360
37 VDD:1 _030_:1 0.019833
38 VDD:1 _031_:1 0.066851
39 VDD:1 _033_:1 0.030849
40 VDD:1 _035_:1 0.009917
41 VDD:1 _036_:1 0.019833
42 VDD:1 _037_:1 0.029750
43 VDD:1 _038_:1 0.038692
44 VDD:1 _039_:1 0.009917
45 VDD:1 _040_:1 0.019833
46 VDD:1 _041_:1 0.009917
47 VDD:1 _042_:1 0.034212
48 VDD:1 _043_:1 0.024840
49 VDD:1 _044_:1 0.036715
50 VDD:1 _046_:1 0.009917
51 VDD:1 _047_:1 0.013033
52 VDD:1 _048_:1 0.009917
53 VDD:1 _049_:1 0.014397
54 VDD:1 _050_:1 0.009917
55 VDD:1 _051_:1 0.029089
56 VDD:1 _052_:1 0.034757
57 VDD:1 _053_:1 0.009917
58 VDD:1 _054_:1 0.013718
59 VDD:1 _057_:1 0.029750
60 VDD:1 _058_:1 0.009917
61 VDD:1 _059_:1 0.009917
62 VDD:1 _061_:1 0.027335
63 VDD:1 _062_:1 0.014397
64 VDD:1 c0_r 0.063321
65 VDD:1 c1_r 0.041806
66 VDD:1 c2_r 0.039924
67 VDD:1 c3_r 0.025609
68 VDD:1 c4_r 0.015692
69 VDD:1 c5_r 0.042212
70 VDD:1 c7_r 0.030355
71 VDD:1 c8_r 0.009917
72 VDD:1 c9_r 0.009917
73 VDD:1 clk 0.012709
74 VDD:1 clknet_0_clk:1 0.054107
75 VDD:1 clknet_2_0__leaf_clk:1 0.108126
76 VDD:1 clknet_2_1__leaf_clk:1 0.098351
77 VDD:1 clknet_2_2__leaf_clk:1 0.089988
78 VDD:1 clknet_2_3__leaf_clk:1 0.103020
79 VDD:1 cmp 0.081716
80 VDD:1 eng1:1 0.031092
81 VDD:1 eng2:1 0.009917
82 VDD:1 eng4:1 0.044129
83 VDD:1 eng5:1 0.037848
84 VDD:1 eng6:1 0.023534
85 VDD:1 eng7:1 0.021326
86 VDD:1 eng8:1 0.029750
87 VDD:1 eng9:1 0.067362
88 VDD:1 mode 0.101791
89 VDD:1 ph\[0\]:1 0.003801
90 VDD:1 ph\[10\]:1 0.019833
91 VDD:1 ph\[11\]:1 0.055689
92 VDD:1 ph\[12\]:1 0.056542
93 VDD:1 ph\[13\]:1 0.069416
94 VDD:1 ph\[14\]:1 0.117670
95 VDD:1 ph[15] 0.019833
96 VDD:1 ph\[1\]:1 0.090784
97 VDD:1 ph\[2\]:1 0.037352
98 VDD:1 ph\[3\]:1 0.055136
99 VDD:1 ph\[4\]:1 0.009917
100 VDD:1 ph\[5\]:1 0.045972
101 VDD:1 ph\[6\]:1 0.024840
102 VDD:1 ph\[7\]:1 0.031697
103 VDD:1 ph\[8\]:1 0.013067
104 VDD:1 ph\[9\]:1 0.027436
105 VDD:1 q0:1 0.041768
106 VDD:1 q1:1 0.113639
107 VDD:1 q2:1 0.029750
108 VDD:1 q3:1 0.070649
109 VDD:1 q4:1 0.039764
110 VDD:1 q5:1 0.068880
111 VDD:1 q6:1 0.064127
112 VDD:1 q7:1 0.104941
113 VDD:1 q8:1 0.042458
114 VDD:1 q9:1 0.041182
115 VDD:1 rel_n_16p 0.009917
116 VDD:1 rel_n_2n 0.009917
117 VDD:1 rel_n_2p 0.009917
118 VDD:1 rel_n_4n 0.009917
119 VDD:1 rel_n_4p 0.009917
120 VDD:1 rel_n_64p 0.015925
121 VDD:1 rel_n_8p 0.009917
122 VDD:1 sel_hi_n_128p 0.021176
123 VDD:1 sel_hi_n_16p 0.019833
124 VDD:1 sel_hi_n_1n 0.009917
125 VDD:1 sel_hi_n_256p 0.003925
126 VDD:1 sel_hi_n_2p 0.009917
127 VDD:1 sel_hi_n_32p 0.009917
128 VDD:1 sel_hi_n_64p 0.025390
129 VDD:1 sel_in_n 0.043467
130 VDD:1 sel_lo_n_128n 0.009917
131 VDD:1 sel_lo_n_1n 0.009917
132 VDD:1 sel_lo_n_256n 0.009917
133 VDD:1 sel_lo_n_256p 0.009917
134 VDD:1 sel_lo_n_32n 0.009917
135 VDD:1 start 0.151978
*RES
1 VDD:1 VDD:2 0.214100
2 VDD:1 VDD:3 0.214100
3 VDD:1 VDD:4 0.209800
4 VDD:1 VDD:5 0.212100
5 VDD:1 VDD:6 0.216000
6 VDD:1 VDD:7 0.221200
7 VDD:1 VDD:8 0.333800
8 VDD:1 VDD:9 0.338400
9 VDD:1 VDD:10 0.342700
10 VDD:1 VDD:11 0.347000
11 VDD:1 VDD:12 0.351900
12 VDD:1 VDD:13 0.197000
13 VDD:1 VDD:14 0.201200
14 VDD:1 VDD:15 0.205500
15 VDD:1 VDD:16 0.128100
16 VDD:1 VDD:17 0.085300
17 VDD:1 VDD:18 0.051200
18 VDD:1 VDD:19 0.056200
19 VDD:1 VDD:20 0.090400
20 VDD:1 VDD:21 0.133200
21 VDD:1 VDD:22 0.092200
22 VDD:1 VDD:23 0.034100
23 VDD:1 VDD:24 0.012900
24 VDD:1 VDD:25 0.094300
25 VDD:1 VDD:26 0.126400
26 VDD:1 VDD:27 0.137100
27 VDD:1 VDD:28 0.143500
28 VDD:1 VDD:29 0.019600
29 VDD:1 VDD:30 0.060100
30 VDD:1 VDD:31 0.092200
31 VDD:1 VDD:32 0.034100
32 VDD:1 VDD:33 0.012900
33 VDD:1 VDD:34 0.094300
34 VDD:1 VDD:35 0.126400
35 VDD:1 VDD:36 0.137100
36 VDD:1 VDD:37 0.143500
37 VDD:1 VDD:38 0.019600
38 VDD:1 VDD:39 0.060100
39 VDD:1 VDD:40 0.007200
40 VDD:1 VDD:41 0.320800
41 VDD:1 VDD:42 0.344400
42 VDD:1 VDD:43 0.339600
43 VDD:1 VDD:44 0.004400
44 VDD:1 VDD:45 0.325500
45 VDD:1 VDD:46 0.028600
46 VDD:1 VDD:47 0.355500
47 VDD:1 VDD:48 0.309600
48 VDD:1 VDD:49 0.028600
49 VDD:1 VDD:50 0.355500
50 VDD:1 VDD:51 0.309600
51 VDD:1 VDD:52 0.192700
52 VDD:1 VDD:53 0.152100
53 VDD:1 VDD:54 0.145700
54 VDD:1 VDD:55 0.138900
55 VDD:1 VDD:56 0.192700
56 VDD:1 VDD:57 0.064100
57 VDD:1 VDD:58 0.072600
58 VDD:1 VDD:59 0.059800
59 VDD:1 VDD:60 0.068300
60 VDD:1 VDD:61 0.149900
61 VDD:1 VDD:62 0.134600
62 VDD:1 VDD:63 0.156300
63 VDD:1 VDD:64 0.153800
64 VDD:1 VDD:65 0.055900
65 VDD:1 VDD:66 0.160200
66 VDD:1 VDD:67 0.064500
67 VDD:1 VDD:68 0.130700
68 VDD:1 VDD:69 0.153800
69 VDD:1 VDD:70 0.055900
70 VDD:1 VDD:71 0.160200
71 VDD:1 VDD:72 0.064500
72 VDD:1 VDD:73 0.130700
73 VDD:1 VDD:74 0.045200
74 VDD:1 VDD:75 0.062200
75 VDD:1 VDD:76 0.094100
76 VDD:1 VDD:77 0.224700
77 VDD:1 VDD:78 0.241800
78 VDD:1 VDD:79 0.320900
79 VDD:1 VDD:80 0.179600
80 VDD:1 VDD:81 0.175300
81 VDD:1 VDD:82 0.239700
82 VDD:1 VDD:83 0.222500
83 VDD:1 VDD:84 0.045200
84 VDD:1 VDD:85 0.062200
85 VDD:1 VDD:86 0.094100
86 VDD:1 VDD:87 0.224700
87 VDD:1 VDD:88 0.241800
88 VDD:1 VDD:89 0.320900
89 VDD:1 VDD:90 0.179600
90 VDD:1 VDD:91 0.175300
91 VDD:1 VDD:92 0.239700
92 VDD:1 VDD:93 0.222500
93 VDD:1 VDD:94 0.067000
94 VDD:1 VDD:95 0.325700
95 VDD:1 VDD:96 0.174800
96 VDD:1 VDD:97 0.089300
97 VDD:1 VDD:98 0.170500
98 VDD:1 VDD:99 0.227300
99 VDD:1 VDD:100 0.244400
100 VDD:1 VDD:101 0.246500
101 VDD:1 VDD:102 0.229400
102 VDD:1 VDD:103 0.049900
103 VDD:1 VDD:104 0.233300
104 VDD:1 VDD:105 0.231200
105 VDD:1 VDD:106 0.248300
106 VDD:1 VDD:107 0.053800
107 VDD:1 VDD:108 0.070900
108 VDD:1 VDD:109 0.085400
109 VDD:1 VDD:110 0.170900
110 VDD:1 VDD:111 0.250400
111 VDD:1 VDD:112 0.329500
112 VDD:1 VDD:113 0.166700
113 VDD:1 VDD:114 0.043200
114 VDD:1 VDD:115 0.022000
115 VDD:1 VDD:116 0.083200
116 VDD:1 VDD:117 0.134500
117 VDD:1 VDD:118 0.117400
118 VDD:1 VDD:119 0.011100
119 VDD:1 VDD:120 0.088300
120 VDD:1 VDD:121 0.015800
121 VDD:1 VDD:122 0.139600
122 VDD:1 VDD:123 0.038000
123 VDD:1 VDD:124 0.016700
124 VDD:1 VDD:125 0.122500
125 VDD:1 VDD:126 0.254500
126 VDD:1 VDD:127 0.325100
127 VDD:1 VDD:128 0.312300
128 VDD:1 VDD:129 0.299400
129 VDD:1 VDD:130 0.211700
130 VDD:1 VDD:131 0.077100
131 VDD:1 VDD:132 0.055700
132 VDD:1 VDD:133 0.115500
133 VDD:1 VDD:134 0.130500
134 VDD:1 VDD:135 0.143300
135 VDD:1 VDD:136 0.295100
136 VDD:1 VDD:137 0.308000
137 VDD:1 VDD:138 0.162600
138 VDD:1 VDD:139 0.337900
139 VDD:1 VDD:140 0.192500
140 VDD:1 VDD:141 0.299600
141 VDD:1 VDD:142 0.111100
142 VDD:1 VDD:143 0.126000
143 VDD:1 VDD:144 0.138900
144 VDD:1 VDD:145 0.312400
145 VDD:1 VDD:146 0.342400
146 VDD:1 VDD:147 0.051300
147 VDD:1 VDD:148 0.072600
148 VDD:1 VDD:149 0.295000
149 VDD:1 VDD:150 0.207300
150 VDD:1 VDD:151 0.320600
151 VDD:1 VDD:152 0.250000
152 VDD:1 VDD:153 0.307800
153 VDD:1 VDD:154 0.167000
154 VDD:1 VDD:155 0.188000
155 VDD:1 VDD:156 0.299600
156 VDD:1 VDD:157 0.111100
157 VDD:1 VDD:158 0.126000
158 VDD:1 VDD:159 0.138900
159 VDD:1 VDD:160 0.312400
160 VDD:1 VDD:161 0.342400
161 VDD:1 VDD:162 0.051300
162 VDD:1 VDD:163 0.072600
163 VDD:1 VDD:164 0.295000
164 VDD:1 VDD:165 0.207300
165 VDD:1 VDD:166 0.320600
166 VDD:1 VDD:167 0.250000
167 VDD:1 VDD:168 0.307800
168 VDD:1 VDD:169 0.167000
169 VDD:1 VDD:170 0.188000
170 VDD:1 VDD:171 0.282600
171 VDD:1 VDD:172 0.013600
172 VDD:1 VDD:173 0.162400
173 VDD:1 VDD:174 0.201200
174 VDD:1 VDD:175 0.192700
175 VDD:1 VDD:176 0.182000
176 VDD:1 VDD:177 0.351000
177 VDD:1 VDD:178 0.228700
178 VDD:1 VDD:179 0.301700
179 VDD:1 VDD:180 0.314100
180 VDD:1 VDD:181 0.282600
181 VDD:1 VDD:182 0.013600
182 VDD:1 VDD:183 0.162400
183 VDD:1 VDD:184 0.201200
184 VDD:1 VDD:185 0.192700
185 VDD:1 VDD:186 0.182000
186 VDD:1 VDD:187 0.351000
187 VDD:1 VDD:188 0.228700
188 VDD:1 VDD:189 0.301700
189 VDD:1 VDD:190 0.314100
190 VDD:1 VDD:191 0.275900
191 VDD:1 VDD:192 0.271200
192 VDD:1 VDD:193 0.004300
193 VDD:1 VDD:194 0.268200
194 VDD:1 VDD:195 0.336700
195 VDD:1 VDD:196 0.328500
196 VDD:1 VDD:197 0.333900
197 VDD:1 VDD:198 0.331200
198 VDD:1 VDD:199 0.007800
199 VDD:1 VDD:200 0.262800
200 VDD:1 VDD:201 0.325500
201 VDD:1 VDD:202 0.013100
202 VDD:1 VDD:203 0.339600
203 VDD:1 VDD:204 0.257100
204 VDD:1 VDD:205 0.017000
205 VDD:1 VDD:206 0.253000
206 VDD:1 VDD:207 0.343800
207 VDD:1 VDD:208 0.321400
208 VDD:1 VDD:209 0.019800
209 VDD:1 VDD:210 0.346600
210 VDD:1 VDD:211 0.250100
211 VDD:1 VDD:212 0.318600
212 VDD:1 VDD:213 0.312700
213 VDD:1 VDD:214 0.352500
214 VDD:1 VDD:215 0.025600
215 VDD:1 VDD:216 0.244300
216 VDD:1 VDD:217 0.241200
217 VDD:1 VDD:218 0.241200
218 VDD:1 VDD:219 0.363800
219 VDD:1 VDD:220 0.233000
220 VDD:1 VDD:221 0.301400
221 VDD:1 VDD:222 0.036800
222 VDD:1 VDD:223 0.367700
223 VDD:1 VDD:224 0.229100
224 VDD:1 VDD:225 0.040700
225 VDD:1 VDD:226 0.297500
226 VDD:1 VDD:227 0.201200
227 VDD:1 VDD:228 0.197000
228 VDD:1 VDD:229 0.205500
229 VDD:1 VDD:230 0.209800
230 VDD:1 VDD:231 0.351900
231 VDD:1 VDD:232 0.347000
232 VDD:1 VDD:233 0.221200
233 VDD:1 VDD:234 0.216000
234 VDD:1 VDD:235 0.056200
235 VDD:1 VDD:236 0.090400
236 VDD:1 VDD:237 0.133200
237 VDD:1 VDD:238 0.128100
238 VDD:1 VDD:239 0.085300
239 VDD:1 VDD:240 0.051200
240 VDD:1 VDD:241 0.339600
241 VDD:1 VDD:242 0.004400
242 VDD:1 VDD:243 0.325500
243 VDD:1 VDD:244 0.007200
244 VDD:1 VDD:245 0.320800
245 VDD:1 VDD:246 0.344400
246 VDD:1 VDD:247 0.271200
247 VDD:1 VDD:248 0.275900
248 VDD:1 VDD:249 0.017000
249 VDD:1 VDD:250 0.253000
250 VDD:1 VDD:251 0.343800
251 VDD:1 VDD:252 0.321400
252 VDD:1 VDD:253 0.325500
253 VDD:1 VDD:254 0.013100
254 VDD:1 VDD:255 0.339600
255 VDD:1 VDD:256 0.257100
256 VDD:1 VDD:257 0.088300
257 VDD:1 VDD:258 0.015800
258 VDD:1 VDD:259 0.139600
259 VDD:1 VDD:260 0.038000
260 VDD:1 VDD:261 0.016700
261 VDD:1 VDD:262 0.122500
262 VDD:1 VDD:263 0.043200
263 VDD:1 VDD:264 0.022000
264 VDD:1 VDD:265 0.083200
265 VDD:1 VDD:266 0.134500
266 VDD:1 VDD:267 0.117400
267 VDD:1 VDD:268 0.011100
268 VDD:1 VDD:269 0.367700
269 VDD:1 VDD:270 0.229100
270 VDD:1 VDD:271 0.040700
271 VDD:1 VDD:272 0.297500
272 VDD:1 VDD:273 0.363800
273 VDD:1 VDD:274 0.233000
274 VDD:1 VDD:275 0.301400
275 VDD:1 VDD:276 0.036800
*END

*D_NET VDD 30.213322
*CONN
*P VDD B
*CAP
1 VDD:1 26.117447
2 VDD:1 _000_:1 0.009917
3 VDD:1 _001_:1 0.019833
4 VDD:1 _003_:1 0.009917
5 VDD:1 _004_:1 0.009917
6 VDD:1 _005_:1 0.009917
7 VDD:1 _006_:1 0.019833
8 VDD:1 _008_:1 0.024579
9 VDD:1 _009_\[10\]:1 0.009917
10 VDD:1 _009_\[11\]:1 0.009917
11 VDD:1 _009_\[13\]:1 0.009917
12 VDD:1 _009_\[14\]:1 0.009917
13 VDD:1 _009_\[1\]:1 0.044412
14 VDD:1 _009_\[2\]:1 0.043485
15 VDD:1 _009_\[3\]:1 0.039666
16 VDD:1 _009_\[4\]:1 0.016603
17 VDD:1 _009_\[7\]:1 0.030127
18 VDD:1 _009_\[8\]:1 0.009917
19 VDD:1 _009_\[9\]:1 0.009917
20 VDD:1 _010_:1 0.014397
21 VDD:1 _011_:1 0.019833
22 VDD:1 _012_:1 0.009917
23 VDD:1 _013_:1 0.019833
24 VDD:1 _014_:1 0.009917
25 VDD:1 _015_:1 0.024313
26 VDD:1 _016_:1 0.009917
27 VDD:1 _017_:1 0.019833
28 VDD:1 _018_:1 0.009917
29 VDD:1 _020_:1 0.009917
30 VDD:1 _021_:1 0.026519
31 VDD:1 _022_:1 0.009917
32 VDD:1 _023_:1 0.009917
33 VDD:1 _024_:1 0.034495
34 VDD:1 _025_:1 0.009917
35 VDD:1 _026_:1 0.009917
36 VDD:1 _028_:1 0.012360
37 VDD:1 _030_:1 0.019833
38 VDD:1 _031_:1 0.066851
39 VDD:1 _033_:1 0.030849
40 VDD:1 _035_:1 0.009917
41 VDD:1 _036_:1 0.019833
42 VDD:1 _037_:1 0.029750
43 VDD:1 _038_:1 0.038692
44 VDD:1 _039_:1 0.009917
45 VDD:1 _040_:1 0.019833
46 VDD:1 _041_:1 0.009917
47 VDD:1 _042_:1 0.034212
48 VDD:1 _043_:1 0.024840
49 VDD:1 _044_:1 0.036715
50 VDD:1 _046_:1 0.009917
51 VDD:1 _047_:1 0.013033
52 VDD:1 _048_:1 0.009917
53 VDD:1 _049_:1 0.014397
54 VDD:1 _050_:1 0.009917
55 VDD:1 _051_:1 0.029089
56 VDD:1 _052_:1 0.034757
57 VDD:1 _053_:1 0.009917
58 VDD:1 _054_:1 0.013718
59 VDD:1 _057_:1 0.029750
60 VDD:1 _058_:1 0.009917
61 VDD:1 _059_:1 0.009917
62 VDD:1 _061_:1 0.027335
63 VDD:1 _062_:1 0.014397
64 VDD:1 c0_r 0.063321
65 VDD:1 c1_r 0.041806
66 VDD:1 c2_r 0.039924
67 VDD:1 c3_r 0.025609
68 VDD:1 c4_r 0.015692
69 VDD:1 c5_r 0.042212
70 VDD:1 c7_r 0.030355
71 VDD:1 c8_r 0.009917
72 VDD:1 c9_r 0.009917
73 VDD:1 clk 0.012709
74 VDD:1 clknet_0_clk:1 0.054107
75 VDD:1 clknet_2_0__leaf_clk:1 0.108126
76 VDD:1 clknet_2_1__leaf_clk:1 0.098351
77 VDD:1 clknet_2_2__leaf_clk:1 0.089988
78 VDD:1 clknet_2_3__leaf_clk:1 0.103020
79 VDD:1 cmp 0.081716
80 VDD:1 eng1:1 0.031092
81 VDD:1 eng2:1 0.009917
82 VDD:1 eng4:1 0.044129
83 VDD:1 eng5:1 0.037848
84 VDD:1 eng6:1 0.023534
85 VDD:1 eng7:1 0.021326
86 VDD:1 eng8:1 0.029750
87 VDD:1 eng9:1 0.067362
88 VDD:1 mode 0.101791
89 VDD:1 ph\[0\]:1 0.003801
90 VDD:1 ph\[10\]:1 0.019833
91 VDD:1 ph\[11\]:1 0.055689
92 VDD:1 ph\[12\]:1 0.056542
93 VDD:1 ph\[13\]:1 0.069416
94 VDD:1 ph\[14\]:1 0.117670
95 VDD:1 ph[15] 0.019833
96 VDD:1 ph\[1\]:1 0.090784
97 VDD:1 ph\[2\]:1 0.037352
98 VDD:1 ph\[3\]:1 0.055136
99 VDD:1 ph\[4\]:1 0.009917
100 VDD:1 ph\[5\]:1 0.045972
101 VDD:1 ph\[6\]:1 0.024840
102 VDD:1 ph\[7\]:1 0.031697
103 VDD:1 ph\[8\]:1 0.013067
104 VDD:1 ph\[9\]:1 0.027436
105 VDD:1 q0:1 0.041768
106 VDD:1 q1:1 0.113639
107 VDD:1 q2:1 0.029750
108 VDD:1 q3:1 0.070649
109 VDD:1 q4:1 0.039764
110 VDD:1 q5:1 0.068880
111 VDD:1 q6:1 0.064127
112 VDD:1 q7:1 0.104941
113 VDD:1 q8:1 0.042458
114 VDD:1 q9:1 0.041182
115 VDD:1 rel_n_16p 0.009917
116 VDD:1 rel_n_2n 0.009917
117 VDD:1 rel_n_2p 0.009917
118 VDD:1 rel_n_4n 0.009917
119 VDD:1 rel_n_4p 0.009917
120 VDD:1 rel_n_64p 0.015925
121 VDD:1 rel_n_8p 0.009917
122 VDD:1 sel_hi_n_128p 0.021176
123 VDD:1 sel_hi_n_16p 0.019833
124 VDD:1 sel_hi_n_1n 0.009917
125 VDD:1 sel_hi_n_256p 0.003925
126 VDD:1 sel_hi_n_2p 0.009917
127 VDD:1 sel_hi_n_32p 0.009917
128 VDD:1 sel_hi_n_64p 0.025390
129 VDD:1 sel_in_n 0.043467
130 VDD:1 sel_lo_n_128n 0.009917
131 VDD:1 sel_lo_n_1n 0.009917
132 VDD:1 sel_lo_n_256n 0.009917
133 VDD:1 sel_lo_n_256p 0.009917
134 VDD:1 sel_lo_n_32n 0.009917
135 VDD:1 start 0.151978
*RES
1 VDD:1 VDD:2 0.148100
2 VDD:1 VDD:3 0.143500
3 VDD:1 VDD:4 0.141000
4 VDD:1 VDD:5 0.137800
5 VDD:1 VDD:6 0.135500
6 VDD:1 VDD:7 0.132300
7 VDD:1 VDD:8 0.053100
8 VDD:1 VDD:9 0.030300
9 VDD:1 VDD:10 0.033500
10 VDD:1 VDD:11 0.056300
11 VDD:1 VDD:12 0.035800
12 VDD:1 VDD:13 0.058700
13 VDD:1 VDD:14 0.039000
14 VDD:1 VDD:15 0.061900
15 VDD:1 VDD:16 0.041500
16 VDD:1 VDD:17 0.064300
17 VDD:1 VDD:18 0.046100
18 VDD:1 VDD:19 0.068900
19 VDD:1 VDD:20 0.166000
20 VDD:1 VDD:21 0.173000
21 VDD:1 VDD:22 0.176500
22 VDD:1 VDD:23 0.127900
23 VDD:1 VDD:24 0.131400
24 VDD:1 VDD:25 0.134900
25 VDD:1 VDD:26 0.169500
26 VDD:1 VDD:27 0.138400
27 VDD:1 VDD:28 0.124400
28 VDD:1 VDD:29 0.180100
29 VDD:1 VDD:30 0.124400
30 VDD:1 VDD:31 0.180100
31 VDD:1 VDD:32 0.125500
32 VDD:1 VDD:33 0.125500
33 VDD:1 VDD:34 0.109500
34 VDD:1 VDD:35 0.205500
35 VDD:1 VDD:36 0.056000
36 VDD:1 VDD:37 0.275800
37 VDD:1 VDD:38 0.019900
38 VDD:1 VDD:39 0.192200
39 VDD:1 VDD:40 0.023900
40 VDD:1 VDD:41 0.201600
41 VDD:1 VDD:42 0.272000
42 VDD:1 VDD:43 0.052100
43 VDD:1 VDD:44 0.113400
44 VDD:1 VDD:45 0.196100
45 VDD:1 VDD:46 0.138100
46 VDD:1 VDD:47 0.027500
47 VDD:1 VDD:48 0.247300
48 VDD:1 VDD:49 0.220800
49 VDD:1 VDD:50 0.048500
50 VDD:1 VDD:51 0.176900
51 VDD:1 VDD:52 0.138100
52 VDD:1 VDD:53 0.027500
53 VDD:1 VDD:54 0.247300
54 VDD:1 VDD:55 0.220800
55 VDD:1 VDD:56 0.048500
56 VDD:1 VDD:57 0.176900
57 VDD:1 VDD:58 0.142000
58 VDD:1 VDD:59 0.162500
59 VDD:1 VDD:60 0.142000
60 VDD:1 VDD:61 0.162500
61 VDD:1 VDD:62 0.092800
62 VDD:1 VDD:63 0.191300
63 VDD:1 VDD:64 0.287300
64 VDD:1 VDD:65 0.092800
65 VDD:1 VDD:66 0.191300
66 VDD:1 VDD:67 0.287300
67 VDD:1 VDD:68 0.088900
68 VDD:1 VDD:69 0.187400
69 VDD:1 VDD:70 0.291200
70 VDD:1 VDD:71 0.184200
71 VDD:1 VDD:72 0.085700
72 VDD:1 VDD:73 0.294400
73 VDD:1 VDD:74 0.118100
74 VDD:1 VDD:75 0.122300
75 VDD:1 VDD:76 0.275800
76 VDD:1 VDD:77 0.093700
77 VDD:1 VDD:78 0.152700
78 VDD:1 VDD:79 0.230100
79 VDD:1 VDD:80 0.269600
80 VDD:1 VDD:81 0.226400
81 VDD:1 VDD:82 0.273300
82 VDD:1 VDD:83 0.149000
83 VDD:1 VDD:84 0.097400
84 VDD:1 VDD:85 0.272100
85 VDD:1 VDD:86 0.226400
86 VDD:1 VDD:87 0.273300
87 VDD:1 VDD:88 0.149000
88 VDD:1 VDD:89 0.097400
89 VDD:1 VDD:90 0.272100
90 VDD:1 VDD:91 0.225800
91 VDD:1 VDD:92 0.186700
92 VDD:1 VDD:93 0.170900
93 VDD:1 VDD:94 0.045600
94 VDD:1 VDD:95 0.052300
95 VDD:1 VDD:96 0.280300
96 VDD:1 VDD:97 0.014600
97 VDD:1 VDD:98 0.281300
98 VDD:1 VDD:99 0.076300
99 VDD:1 VDD:100 0.174000
100 VDD:1 VDD:101 0.159500
101 VDD:1 VDD:102 0.121200
102 VDD:1 VDD:103 0.210900
103 VDD:1 VDD:104 0.251800
104 VDD:1 VDD:105 0.099700
105 VDD:1 VDD:106 0.265500
106 VDD:1 VDD:107 0.061400
107 VDD:1 VDD:108 0.104000
108 VDD:1 VDD:109 0.225800
109 VDD:1 VDD:110 0.186700
110 VDD:1 VDD:111 0.170900
111 VDD:1 VDD:112 0.045600
112 VDD:1 VDD:113 0.052300
113 VDD:1 VDD:114 0.280300
114 VDD:1 VDD:115 0.014600
115 VDD:1 VDD:116 0.281300
116 VDD:1 VDD:117 0.076300
117 VDD:1 VDD:118 0.174000
118 VDD:1 VDD:119 0.159500
119 VDD:1 VDD:120 0.121200
120 VDD:1 VDD:121 0.210900
121 VDD:1 VDD:122 0.251800
122 VDD:1 VDD:123 0.099700
123 VDD:1 VDD:124 0.265500
124 VDD:1 VDD:125 0.061400
125 VDD:1 VDD:126 0.104000
126 VDD:1 VDD:127 0.260000
127 VDD:1 VDD:128 0.168500
128 VDD:1 VDD:129 0.115800
129 VDD:1 VDD:130 0.176300
130 VDD:1 VDD:131 0.257300
131 VDD:1 VDD:132 0.040200
132 VDD:1 VDD:133 0.111900
133 VDD:1 VDD:134 0.036400
134 VDD:1 VDD:135 0.256100
135 VDD:1 VDD:136 0.164600
136 VDD:1 VDD:137 0.180300
137 VDD:1 VDD:138 0.261200
138 VDD:1 VDD:139 0.263600
139 VDD:1 VDD:140 0.162200
140 VDD:1 VDD:141 0.198500
141 VDD:1 VDD:142 0.182700
142 VDD:1 VDD:143 0.199100
143 VDD:1 VDD:144 0.049700
144 VDD:1 VDD:145 0.253700
145 VDD:1 VDD:146 0.269500
146 VDD:1 VDD:147 0.115900
147 VDD:1 VDD:148 0.033900
148 VDD:1 VDD:149 0.109400
149 VDD:1 VDD:150 0.026300
150 VDD:1 VDD:151 0.120300
151 VDD:1 VDD:152 0.029500
152 VDD:1 VDD:153 0.268100
153 VDD:1 VDD:154 0.187200
154 VDD:1 VDD:155 0.030800
155 VDD:1 VDD:156 0.249200
156 VDD:1 VDD:157 0.265000
157 VDD:1 VDD:158 0.045200
158 VDD:1 VDD:159 0.194700
159 VDD:1 VDD:160 0.157700
160 VDD:1 VDD:161 0.105000
161 VDD:1 VDD:162 0.203000
162 VDD:1 VDD:163 0.244500
163 VDD:1 VDD:164 0.190000
164 VDD:1 VDD:165 0.191900
165 VDD:1 VDD:166 0.100300
166 VDD:1 VDD:167 0.260300
167 VDD:1 VDD:168 0.040500
168 VDD:1 VDD:169 0.125000
169 VDD:1 VDD:170 0.024800
170 VDD:1 VDD:171 0.207700
171 VDD:1 VDD:172 0.153000
172 VDD:1 VDD:173 0.035400
173 VDD:1 VDD:174 0.272800
174 VDD:1 VDD:175 0.021500
175 VDD:1 VDD:176 0.211100
176 VDD:1 VDD:177 0.241100
177 VDD:1 VDD:178 0.096900
178 VDD:1 VDD:179 0.149600
179 VDD:1 VDD:180 0.256900
180 VDD:1 VDD:181 0.037200
181 VDD:1 VDD:182 0.038800
182 VDD:1 VDD:183 0.276200
183 VDD:1 VDD:184 0.128400
184 VDD:1 VDD:185 0.195300
185 VDD:1 VDD:186 0.186600
186 VDD:1 VDD:187 0.034800
187 VDD:1 VDD:188 0.130700
188 VDD:1 VDD:189 0.019200
189 VDD:1 VDD:190 0.147300
190 VDD:1 VDD:191 0.278500
191 VDD:1 VDD:192 0.254600
192 VDD:1 VDD:193 0.238800
193 VDD:1 VDD:194 0.184200
194 VDD:1 VDD:195 0.197600
195 VDD:1 VDD:196 0.041100
196 VDD:1 VDD:197 0.213400
197 VDD:1 VDD:198 0.094600
198 VDD:1 VDD:199 0.030000
199 VDD:1 VDD:200 0.233900
200 VDD:1 VDD:201 0.249800
201 VDD:1 VDD:202 0.142500
202 VDD:1 VDD:203 0.089700
203 VDD:1 VDD:204 0.218300
204 VDD:1 VDD:205 0.179400
205 VDD:1 VDD:206 0.202400
206 VDD:1 VDD:207 0.045900
207 VDD:1 VDD:208 0.014400
208 VDD:1 VDD:209 0.135600
209 VDD:1 VDD:210 0.283300
210 VDD:1 VDD:211 0.012000
211 VDD:1 VDD:212 0.087200
212 VDD:1 VDD:213 0.204900
213 VDD:1 VDD:214 0.140000
214 VDD:1 VDD:215 0.231400
215 VDD:1 VDD:216 0.285900
216 VDD:1 VDD:217 0.012000
217 VDD:1 VDD:218 0.087200
218 VDD:1 VDD:219 0.204900
219 VDD:1 VDD:220 0.140000
220 VDD:1 VDD:221 0.231400
221 VDD:1 VDD:222 0.285900
222 VDD:1 VDD:223 0.292600
223 VDD:1 VDD:224 0.005900
224 VDD:1 VDD:225 0.020800
225 VDD:1 VDD:226 0.224600
226 VDD:1 VDD:227 0.144900
227 VDD:1 VDD:228 0.227600
228 VDD:1 VDD:229 0.170100
229 VDD:1 VDD:230 0.211700
230 VDD:1 VDD:231 0.055200
231 VDD:1 VDD:232 0.240500
232 VDD:1 VDD:233 0.080400
233 VDD:1 VDD:234 0.133200
234 VDD:1 VDD:235 0.148100
235 VDD:1 VDD:236 0.058400
236 VDD:1 VDD:237 0.166900
237 VDD:1 VDD:238 0.295900
238 VDD:1 VDD:239 0.077200
239 VDD:1 VDD:240 0.130000
240 VDD:1 VDD:241 0.214900
241 VDD:1 VDD:242 0.230800
242 VDD:1 VDD:243 0.221400
243 VDD:1 VDD:244 0.003900
244 VDD:1 VDD:245 0.017700
245 VDD:1 VDD:246 0.237300
246 VDD:1 VDD:247 0.132300
247 VDD:1 VDD:248 0.135500
248 VDD:1 VDD:249 0.033500
249 VDD:1 VDD:250 0.056300
250 VDD:1 VDD:251 0.053100
251 VDD:1 VDD:252 0.030300
252 VDD:1 VDD:253 0.143500
253 VDD:1 VDD:254 0.148100
254 VDD:1 VDD:255 0.046100
255 VDD:1 VDD:256 0.068900
256 VDD:1 VDD:257 0.041500
257 VDD:1 VDD:258 0.064300
258 VDD:1 VDD:259 0.176500
259 VDD:1 VDD:260 0.127900
260 VDD:1 VDD:261 0.134900
261 VDD:1 VDD:262 0.169500
262 VDD:1 VDD:263 0.166000
263 VDD:1 VDD:264 0.173000
264 VDD:1 VDD:265 0.131400
265 VDD:1 VDD:266 0.138400
266 VDD:1 VDD:267 0.023900
267 VDD:1 VDD:268 0.201600
268 VDD:1 VDD:269 0.272000
269 VDD:1 VDD:270 0.052100
270 VDD:1 VDD:271 0.113400
271 VDD:1 VDD:272 0.196100
272 VDD:1 VDD:273 0.109500
273 VDD:1 VDD:274 0.205500
274 VDD:1 VDD:275 0.056000
275 VDD:1 VDD:276 0.275800
276 VDD:1 VDD:277 0.019900
277 VDD:1 VDD:278 0.192200
278 VDD:1 VDD:279 0.111900
279 VDD:1 VDD:280 0.036400
280 VDD:1 VDD:281 0.256100
281 VDD:1 VDD:282 0.164600
282 VDD:1 VDD:283 0.180300
283 VDD:1 VDD:284 0.261200
284 VDD:1 VDD:285 0.260000
285 VDD:1 VDD:286 0.168500
286 VDD:1 VDD:287 0.115800
287 VDD:1 VDD:288 0.176300
288 VDD:1 VDD:289 0.257300
289 VDD:1 VDD:290 0.040200
290 VDD:1 VDD:291 0.021500
291 VDD:1 VDD:292 0.211100
292 VDD:1 VDD:293 0.241100
293 VDD:1 VDD:294 0.096900
294 VDD:1 VDD:295 0.149600
295 VDD:1 VDD:296 0.256900
296 VDD:1 VDD:297 0.037200
297 VDD:1 VDD:298 0.038800
298 VDD:1 VDD:299 0.276200
299 VDD:1 VDD:300 0.128400
300 VDD:1 VDD:301 0.195300
301 VDD:1 VDD:302 0.186600
302 VDD:1 VDD:303 0.244500
303 VDD:1 VDD:304 0.190000
304 VDD:1 VDD:305 0.191900
305 VDD:1 VDD:306 0.100300
306 VDD:1 VDD:307 0.260300
307 VDD:1 VDD:308 0.040500
308 VDD:1 VDD:309 0.125000
309 VDD:1 VDD:310 0.024800
310 VDD:1 VDD:311 0.207700
311 VDD:1 VDD:312 0.153000
312 VDD:1 VDD:313 0.035400
313 VDD:1 VDD:314 0.272800
314 VDD:1 VDD:315 0.122300
315 VDD:1 VDD:316 0.118100
316 VDD:1 VDD:317 0.148100
317 VDD:1 VDD:318 0.058400
318 VDD:1 VDD:319 0.166900
319 VDD:1 VDD:320 0.295900
320 VDD:1 VDD:321 0.077200
321 VDD:1 VDD:322 0.130000
322 VDD:1 VDD:323 0.214900
323 VDD:1 VDD:324 0.230800
324 VDD:1 VDD:325 0.221400
325 VDD:1 VDD:326 0.003900
326 VDD:1 VDD:327 0.017700
327 VDD:1 VDD:328 0.237300
328 VDD:1 VDD:329 0.292600
329 VDD:1 VDD:330 0.005900
330 VDD:1 VDD:331 0.020800
331 VDD:1 VDD:332 0.224600
332 VDD:1 VDD:333 0.144900
333 VDD:1 VDD:334 0.227600
334 VDD:1 VDD:335 0.170100
335 VDD:1 VDD:336 0.211700
336 VDD:1 VDD:337 0.055200
337 VDD:1 VDD:338 0.240500
338 VDD:1 VDD:339 0.080400
339 VDD:1 VDD:340 0.133200
*END

*D_NET VDD 29.332026
*CONN
*P VDD B
*CAP
1 VDD:1 25.236151
2 VDD:1 _000_:1 0.009917
3 VDD:1 _001_:1 0.019833
4 VDD:1 _003_:1 0.009917
5 VDD:1 _004_:1 0.009917
6 VDD:1 _005_:1 0.009917
7 VDD:1 _006_:1 0.019833
8 VDD:1 _008_:1 0.024579
9 VDD:1 _009_\[10\]:1 0.009917
10 VDD:1 _009_\[11\]:1 0.009917
11 VDD:1 _009_\[13\]:1 0.009917
12 VDD:1 _009_\[14\]:1 0.009917
13 VDD:1 _009_\[1\]:1 0.044412
14 VDD:1 _009_\[2\]:1 0.043485
15 VDD:1 _009_\[3\]:1 0.039666
16 VDD:1 _009_\[4\]:1 0.016603
17 VDD:1 _009_\[7\]:1 0.030127
18 VDD:1 _009_\[8\]:1 0.009917
19 VDD:1 _009_\[9\]:1 0.009917
20 VDD:1 _010_:1 0.014397
21 VDD:1 _011_:1 0.019833
22 VDD:1 _012_:1 0.009917
23 VDD:1 _013_:1 0.019833
24 VDD:1 _014_:1 0.009917
25 VDD:1 _015_:1 0.024313
26 VDD:1 _016_:1 0.009917
27 VDD:1 _017_:1 0.019833
28 VDD:1 _018_:1 0.009917
29 VDD:1 _020_:1 0.009917
30 VDD:1 _021_:1 0.026519
31 VDD:1 _022_:1 0.009917
32 VDD:1 _023_:1 0.009917
33 VDD:1 _024_:1 0.034495
34 VDD:1 _025_:1 0.009917
35 VDD:1 _026_:1 0.009917
36 VDD:1 _028_:1 0.012360
37 VDD:1 _030_:1 0.019833
38 VDD:1 _031_:1 0.066851
39 VDD:1 _033_:1 0.030849
40 VDD:1 _035_:1 0.009917
41 VDD:1 _036_:1 0.019833
42 VDD:1 _037_:1 0.029750
43 VDD:1 _038_:1 0.038692
44 VDD:1 _039_:1 0.009917
45 VDD:1 _040_:1 0.019833
46 VDD:1 _041_:1 0.009917
47 VDD:1 _042_:1 0.034212
48 VDD:1 _043_:1 0.024840
49 VDD:1 _044_:1 0.036715
50 VDD:1 _046_:1 0.009917
51 VDD:1 _047_:1 0.013033
52 VDD:1 _048_:1 0.009917
53 VDD:1 _049_:1 0.014397
54 VDD:1 _050_:1 0.009917
55 VDD:1 _051_:1 0.029089
56 VDD:1 _052_:1 0.034757
57 VDD:1 _053_:1 0.009917
58 VDD:1 _054_:1 0.013718
59 VDD:1 _057_:1 0.029750
60 VDD:1 _058_:1 0.009917
61 VDD:1 _059_:1 0.009917
62 VDD:1 _061_:1 0.027335
63 VDD:1 _062_:1 0.014397
64 VDD:1 c0_r 0.063321
65 VDD:1 c1_r 0.041806
66 VDD:1 c2_r 0.039924
67 VDD:1 c3_r 0.025609
68 VDD:1 c4_r 0.015692
69 VDD:1 c5_r 0.042212
70 VDD:1 c7_r 0.030355
71 VDD:1 c8_r 0.009917
72 VDD:1 c9_r 0.009917
73 VDD:1 clk 0.012709
74 VDD:1 clknet_0_clk:1 0.054107
75 VDD:1 clknet_2_0__leaf_clk:1 0.108126
76 VDD:1 clknet_2_1__leaf_clk:1 0.098351
77 VDD:1 clknet_2_2__leaf_clk:1 0.089988
78 VDD:1 clknet_2_3__leaf_clk:1 0.103020
79 VDD:1 cmp 0.081716
80 VDD:1 eng1:1 0.031092
81 VDD:1 eng2:1 0.009917
82 VDD:1 eng4:1 0.044129
83 VDD:1 eng5:1 0.037848
84 VDD:1 eng6:1 0.023534
85 VDD:1 eng7:1 0.021326
86 VDD:1 eng8:1 0.029750
87 VDD:1 eng9:1 0.067362
88 VDD:1 mode 0.101791
89 VDD:1 ph\[0\]:1 0.003801
90 VDD:1 ph\[10\]:1 0.019833
91 VDD:1 ph\[11\]:1 0.055689
92 VDD:1 ph\[12\]:1 0.056542
93 VDD:1 ph\[13\]:1 0.069416
94 VDD:1 ph\[14\]:1 0.117670
95 VDD:1 ph[15] 0.019833
96 VDD:1 ph\[1\]:1 0.090784
97 VDD:1 ph\[2\]:1 0.037352
98 VDD:1 ph\[3\]:1 0.055136
99 VDD:1 ph\[4\]:1 0.009917
100 VDD:1 ph\[5\]:1 0.045972
101 VDD:1 ph\[6\]:1 0.024840
102 VDD:1 ph\[7\]:1 0.031697
103 VDD:1 ph\[8\]:1 0.013067
104 VDD:1 ph\[9\]:1 0.027436
105 VDD:1 q0:1 0.041768
106 VDD:1 q1:1 0.113639
107 VDD:1 q2:1 0.029750
108 VDD:1 q3:1 0.070649
109 VDD:1 q4:1 0.039764
110 VDD:1 q5:1 0.068880
111 VDD:1 q6:1 0.064127
112 VDD:1 q7:1 0.104941
113 VDD:1 q8:1 0.042458
114 VDD:1 q9:1 0.041182
115 VDD:1 rel_n_16p 0.009917
116 VDD:1 rel_n_2n 0.009917
117 VDD:1 rel_n_2p 0.009917
118 VDD:1 rel_n_4n 0.009917
119 VDD:1 rel_n_4p 0.009917
120 VDD:1 rel_n_64p 0.015925
121 VDD:1 rel_n_8p 0.009917
122 VDD:1 sel_hi_n_128p 0.021176
123 VDD:1 sel_hi_n_16p 0.019833
124 VDD:1 sel_hi_n_1n 0.009917
125 VDD:1 sel_hi_n_256p 0.003925
126 VDD:1 sel_hi_n_2p 0.009917
127 VDD:1 sel_hi_n_32p 0.009917
128 VDD:1 sel_hi_n_64p 0.025390
129 VDD:1 sel_in_n 0.043467
130 VDD:1 sel_lo_n_128n 0.009917
131 VDD:1 sel_lo_n_1n 0.009917
132 VDD:1 sel_lo_n_256n 0.009917
133 VDD:1 sel_lo_n_256p 0.009917
134 VDD:1 sel_lo_n_32n 0.009917
135 VDD:1 start 0.151978
*RES
1 VDD:1 VDD:2 0.143200
2 VDD:1 VDD:3 0.138100
3 VDD:1 VDD:4 0.077800
4 VDD:1 VDD:5 0.035100
5 VDD:1 VDD:6 0.027300
6 VDD:1 VDD:7 0.032500
7 VDD:1 VDD:8 0.082900
8 VDD:1 VDD:9 0.030200
9 VDD:1 VDD:10 0.047400
10 VDD:1 VDD:11 0.125700
11 VDD:1 VDD:12 0.065500
12 VDD:1 VDD:13 0.015100
13 VDD:1 VDD:14 0.055200
14 VDD:1 VDD:15 0.069000
15 VDD:1 VDD:16 0.129300
16 VDD:1 VDD:17 0.043900
17 VDD:1 VDD:18 0.018600
18 VDD:1 VDD:19 0.051700
19 VDD:1 VDD:20 0.131800
20 VDD:1 VDD:21 0.041300
21 VDD:1 VDD:22 0.021100
22 VDD:1 VDD:23 0.071600
23 VDD:1 VDD:24 0.049100
24 VDD:1 VDD:25 0.024600
25 VDD:1 VDD:26 0.037800
26 VDD:1 VDD:27 0.135400
27 VDD:1 VDD:28 0.045500
28 VDD:1 VDD:29 0.075100
29 VDD:1 VDD:30 0.042900
30 VDD:1 VDD:31 0.037800
31 VDD:1 VDD:32 0.152200
32 VDD:1 VDD:33 0.163800
33 VDD:1 VDD:34 0.159900
34 VDD:1 VDD:35 0.156100
35 VDD:1 VDD:36 0.148300
36 VDD:1 VDD:37 0.148300
37 VDD:1 VDD:38 0.321500
38 VDD:1 VDD:39 0.134900
39 VDD:1 VDD:40 0.130600
40 VDD:1 VDD:41 0.317300
41 VDD:1 VDD:42 0.290000
42 VDD:1 VDD:43 0.103300
43 VDD:1 VDD:44 0.290000
44 VDD:1 VDD:45 0.103300
45 VDD:1 VDD:46 0.167700
46 VDD:1 VDD:47 0.167700
47 VDD:1 VDD:48 0.103600
48 VDD:1 VDD:49 0.291300
49 VDD:1 VDD:50 0.265000
50 VDD:1 VDD:51 0.212500
51 VDD:1 VDD:52 0.280600
52 VDD:1 VDD:53 0.258200
53 VDD:1 VDD:54 0.193100
54 VDD:1 VDD:55 0.121100
55 VDD:1 VDD:56 0.221200
56 VDD:1 VDD:57 0.103600
57 VDD:1 VDD:58 0.291300
58 VDD:1 VDD:59 0.265000
59 VDD:1 VDD:60 0.212500
60 VDD:1 VDD:61 0.280600
61 VDD:1 VDD:62 0.258200
62 VDD:1 VDD:63 0.193100
63 VDD:1 VDD:64 0.121100
64 VDD:1 VDD:65 0.221200
65 VDD:1 VDD:66 0.262500
66 VDD:1 VDD:67 0.208200
67 VDD:1 VDD:68 0.188800
68 VDD:1 VDD:69 0.116800
69 VDD:1 VDD:70 0.295600
70 VDD:1 VDD:71 0.260700
71 VDD:1 VDD:72 0.276300
72 VDD:1 VDD:73 0.099300
73 VDD:1 VDD:74 0.225600
74 VDD:1 VDD:75 0.204700
75 VDD:1 VDD:76 0.229100
76 VDD:1 VDD:77 0.095800
77 VDD:1 VDD:78 0.113300
78 VDD:1 VDD:79 0.299100
79 VDD:1 VDD:80 0.257200
80 VDD:1 VDD:81 0.272700
81 VDD:1 VDD:82 0.185200
82 VDD:1 VDD:83 0.266000
83 VDD:1 VDD:84 0.061000
84 VDD:1 VDD:85 0.197000
85 VDD:1 VDD:86 0.208700
86 VDD:1 VDD:87 0.292300
87 VDD:1 VDD:88 0.263200
88 VDD:1 VDD:89 0.209500
89 VDD:1 VDD:90 0.242500
90 VDD:1 VDD:91 0.246400
91 VDD:1 VDD:92 0.318400
92 VDD:1 VDD:93 0.306700
93 VDD:1 VDD:94 0.318400
94 VDD:1 VDD:95 0.322400
95 VDD:1 VDD:96 0.204700
96 VDD:1 VDD:97 0.193000
97 VDD:1 VDD:98 0.310800
98 VDD:1 VDD:99 0.056900
99 VDD:1 VDD:100 0.288300
100 VDD:1 VDD:101 0.250500
101 VDD:1 VDD:102 0.259100
102 VDD:1 VDD:103 0.213500
103 VDD:1 VDD:104 0.246600
104 VDD:1 VDD:105 0.322400
105 VDD:1 VDD:106 0.322400
106 VDD:1 VDD:107 0.204700
107 VDD:1 VDD:108 0.193000
108 VDD:1 VDD:109 0.310800
109 VDD:1 VDD:110 0.056900
110 VDD:1 VDD:111 0.288300
111 VDD:1 VDD:112 0.250500
112 VDD:1 VDD:113 0.259100
113 VDD:1 VDD:114 0.213500
114 VDD:1 VDD:115 0.246600
115 VDD:1 VDD:116 0.322400
116 VDD:1 VDD:117 0.062700
117 VDD:1 VDD:118 0.185600
118 VDD:1 VDD:119 0.177400
119 VDD:1 VDD:120 0.182400
120 VDD:1 VDD:121 0.185900
121 VDD:1 VDD:122 0.140900
122 VDD:1 VDD:123 0.249400
123 VDD:1 VDD:124 0.110100
124 VDD:1 VDD:125 0.261700
125 VDD:1 VDD:126 0.299900
126 VDD:1 VDD:127 0.327600
127 VDD:1 VDD:128 0.270800
128 VDD:1 VDD:129 0.013100
129 VDD:1 VDD:130 0.062700
130 VDD:1 VDD:131 0.185600
131 VDD:1 VDD:132 0.177400
132 VDD:1 VDD:133 0.182400
133 VDD:1 VDD:134 0.185900
134 VDD:1 VDD:135 0.140900
135 VDD:1 VDD:136 0.249400
136 VDD:1 VDD:137 0.110100
137 VDD:1 VDD:138 0.261700
138 VDD:1 VDD:139 0.299900
139 VDD:1 VDD:140 0.327600
140 VDD:1 VDD:141 0.270800
141 VDD:1 VDD:142 0.013100
142 VDD:1 VDD:143 0.267800
143 VDD:1 VDD:144 0.116100
144 VDD:1 VDD:145 0.191900
145 VDD:1 VDD:146 0.179600
146 VDD:1 VDD:147 0.019000
147 VDD:1 VDD:148 0.175300
148 VDD:1 VDD:149 0.272100
149 VDD:1 VDD:150 0.196200
150 VDD:1 VDD:151 0.023400
151 VDD:1 VDD:152 0.120400
152 VDD:1 VDD:153 0.026100
153 VDD:1 VDD:154 0.199000
154 VDD:1 VDD:155 0.172600
155 VDD:1 VDD:156 0.127900
156 VDD:1 VDD:157 0.274800
157 VDD:1 VDD:158 0.314500
158 VDD:1 VDD:159 0.123100
159 VDD:1 VDD:160 0.128100
160 VDD:1 VDD:161 0.203900
161 VDD:1 VDD:162 0.309600
162 VDD:1 VDD:163 0.279700
163 VDD:1 VDD:164 0.031000
164 VDD:1 VDD:165 0.167600
165 VDD:1 VDD:166 0.122900
166 VDD:1 VDD:167 0.117700
167 VDD:1 VDD:168 0.133300
168 VDD:1 VDD:169 0.036100
169 VDD:1 VDD:170 0.284900
170 VDD:1 VDD:171 0.162400
171 VDD:1 VDD:172 0.304400
172 VDD:1 VDD:173 0.209100
173 VDD:1 VDD:174 0.039900
174 VDD:1 VDD:175 0.137000
175 VDD:1 VDD:176 0.288700
176 VDD:1 VDD:177 0.212800
177 VDD:1 VDD:178 0.158700
178 VDD:1 VDD:179 0.114000
179 VDD:1 VDD:180 0.300700
180 VDD:1 VDD:181 0.298100
181 VDD:1 VDD:182 0.215400
182 VDD:1 VDD:183 0.156100
183 VDD:1 VDD:184 0.111400
184 VDD:1 VDD:185 0.291300
185 VDD:1 VDD:186 0.042400
186 VDD:1 VDD:187 0.139600
187 VDD:1 VDD:188 0.296600
188 VDD:1 VDD:189 0.144900
189 VDD:1 VDD:190 0.047800
190 VDD:1 VDD:191 0.106100
191 VDD:1 VDD:192 0.150800
192 VDD:1 VDD:193 0.220800
193 VDD:1 VDD:194 0.292700
194 VDD:1 VDD:195 0.299400
195 VDD:1 VDD:196 0.147700
196 VDD:1 VDD:197 0.223500
197 VDD:1 VDD:198 0.050500
198 VDD:1 VDD:199 0.148000
199 VDD:1 VDD:200 0.299400
200 VDD:1 VDD:201 0.147700
201 VDD:1 VDD:202 0.223500
202 VDD:1 VDD:203 0.050500
203 VDD:1 VDD:204 0.148000
204 VDD:1 VDD:205 0.282500
205 VDD:1 VDD:206 0.095800
206 VDD:1 VDD:207 0.155200
207 VDD:1 VDD:208 0.140500
208 VDD:1 VDD:209 0.058000
209 VDD:1 VDD:210 0.306900
210 VDD:1 VDD:211 0.231000
211 VDD:1 VDD:212 0.158700
212 VDD:1 VDD:213 0.137000
213 VDD:1 VDD:214 0.092300
214 VDD:1 VDD:215 0.278900
215 VDD:1 VDD:216 0.234600
216 VDD:1 VDD:217 0.061600
217 VDD:1 VDD:218 0.310400
218 VDD:1 VDD:219 0.138100
219 VDD:1 VDD:220 0.143200
220 VDD:1 VDD:221 0.032500
221 VDD:1 VDD:222 0.082900
222 VDD:1 VDD:223 0.030200
223 VDD:1 VDD:224 0.077800
224 VDD:1 VDD:225 0.035100
225 VDD:1 VDD:226 0.027300
226 VDD:1 VDD:227 0.069000
227 VDD:1 VDD:228 0.129300
228 VDD:1 VDD:229 0.043900
229 VDD:1 VDD:230 0.018600
230 VDD:1 VDD:231 0.051700
231 VDD:1 VDD:232 0.047400
232 VDD:1 VDD:233 0.125700
233 VDD:1 VDD:234 0.065500
234 VDD:1 VDD:235 0.015100
235 VDD:1 VDD:236 0.055200
236 VDD:1 VDD:237 0.037800
237 VDD:1 VDD:238 0.042900
238 VDD:1 VDD:239 0.152200
239 VDD:1 VDD:240 0.159900
240 VDD:1 VDD:241 0.163800
241 VDD:1 VDD:242 0.156100
242 VDD:1 VDD:243 0.130600
243 VDD:1 VDD:244 0.317300
244 VDD:1 VDD:245 0.321500
245 VDD:1 VDD:246 0.134900
246 VDD:1 VDD:247 0.175300
247 VDD:1 VDD:248 0.272100
248 VDD:1 VDD:249 0.196200
249 VDD:1 VDD:250 0.023400
250 VDD:1 VDD:251 0.120400
251 VDD:1 VDD:252 0.267800
252 VDD:1 VDD:253 0.116100
253 VDD:1 VDD:254 0.191900
254 VDD:1 VDD:255 0.179600
255 VDD:1 VDD:256 0.019000
256 VDD:1 VDD:257 0.039900
257 VDD:1 VDD:258 0.137000
258 VDD:1 VDD:259 0.288700
259 VDD:1 VDD:260 0.212800
260 VDD:1 VDD:261 0.158700
261 VDD:1 VDD:262 0.114000
262 VDD:1 VDD:263 0.300700
263 VDD:1 VDD:264 0.117700
264 VDD:1 VDD:265 0.133300
265 VDD:1 VDD:266 0.036100
266 VDD:1 VDD:267 0.284900
267 VDD:1 VDD:268 0.162400
268 VDD:1 VDD:269 0.304400
269 VDD:1 VDD:270 0.209100
270 VDD:1 VDD:271 0.158700
271 VDD:1 VDD:272 0.137000
272 VDD:1 VDD:273 0.092300
273 VDD:1 VDD:274 0.278900
274 VDD:1 VDD:275 0.234600
275 VDD:1 VDD:276 0.061600
276 VDD:1 VDD:277 0.310400
277 VDD:1 VDD:278 0.282500
278 VDD:1 VDD:279 0.095800
279 VDD:1 VDD:280 0.155200
280 VDD:1 VDD:281 0.140500
281 VDD:1 VDD:282 0.058000
282 VDD:1 VDD:283 0.306900
283 VDD:1 VDD:284 0.231000
*END

*D_NET VDD 29.916850
*CONN
*P VDD B
*CAP
1 VDD:1 25.820975
2 VDD:1 _000_:1 0.009917
3 VDD:1 _001_:1 0.019833
4 VDD:1 _003_:1 0.009917
5 VDD:1 _004_:1 0.009917
6 VDD:1 _005_:1 0.009917
7 VDD:1 _006_:1 0.019833
8 VDD:1 _008_:1 0.024579
9 VDD:1 _009_\[10\]:1 0.009917
10 VDD:1 _009_\[11\]:1 0.009917
11 VDD:1 _009_\[13\]:1 0.009917
12 VDD:1 _009_\[14\]:1 0.009917
13 VDD:1 _009_\[1\]:1 0.044412
14 VDD:1 _009_\[2\]:1 0.043485
15 VDD:1 _009_\[3\]:1 0.039666
16 VDD:1 _009_\[4\]:1 0.016603
17 VDD:1 _009_\[7\]:1 0.030127
18 VDD:1 _009_\[8\]:1 0.009917
19 VDD:1 _009_\[9\]:1 0.009917
20 VDD:1 _010_:1 0.014397
21 VDD:1 _011_:1 0.019833
22 VDD:1 _012_:1 0.009917
23 VDD:1 _013_:1 0.019833
24 VDD:1 _014_:1 0.009917
25 VDD:1 _015_:1 0.024313
26 VDD:1 _016_:1 0.009917
27 VDD:1 _017_:1 0.019833
28 VDD:1 _018_:1 0.009917
29 VDD:1 _020_:1 0.009917
30 VDD:1 _021_:1 0.026519
31 VDD:1 _022_:1 0.009917
32 VDD:1 _023_:1 0.009917
33 VDD:1 _024_:1 0.034495
34 VDD:1 _025_:1 0.009917
35 VDD:1 _026_:1 0.009917
36 VDD:1 _028_:1 0.012360
37 VDD:1 _030_:1 0.019833
38 VDD:1 _031_:1 0.066851
39 VDD:1 _033_:1 0.030849
40 VDD:1 _035_:1 0.009917
41 VDD:1 _036_:1 0.019833
42 VDD:1 _037_:1 0.029750
43 VDD:1 _038_:1 0.038692
44 VDD:1 _039_:1 0.009917
45 VDD:1 _040_:1 0.019833
46 VDD:1 _041_:1 0.009917
47 VDD:1 _042_:1 0.034212
48 VDD:1 _043_:1 0.024840
49 VDD:1 _044_:1 0.036715
50 VDD:1 _046_:1 0.009917
51 VDD:1 _047_:1 0.013033
52 VDD:1 _048_:1 0.009917
53 VDD:1 _049_:1 0.014397
54 VDD:1 _050_:1 0.009917
55 VDD:1 _051_:1 0.029089
56 VDD:1 _052_:1 0.034757
57 VDD:1 _053_:1 0.009917
58 VDD:1 _054_:1 0.013718
59 VDD:1 _057_:1 0.029750
60 VDD:1 _058_:1 0.009917
61 VDD:1 _059_:1 0.009917
62 VDD:1 _061_:1 0.027335
63 VDD:1 _062_:1 0.014397
64 VDD:1 c0_r 0.063321
65 VDD:1 c1_r 0.041806
66 VDD:1 c2_r 0.039924
67 VDD:1 c3_r 0.025609
68 VDD:1 c4_r 0.015692
69 VDD:1 c5_r 0.042212
70 VDD:1 c7_r 0.030355
71 VDD:1 c8_r 0.009917
72 VDD:1 c9_r 0.009917
73 VDD:1 clk 0.012709
74 VDD:1 clknet_0_clk:1 0.054107
75 VDD:1 clknet_2_0__leaf_clk:1 0.108126
76 VDD:1 clknet_2_1__leaf_clk:1 0.098351
77 VDD:1 clknet_2_2__leaf_clk:1 0.089988
78 VDD:1 clknet_2_3__leaf_clk:1 0.103020
79 VDD:1 cmp 0.081716
80 VDD:1 eng1:1 0.031092
81 VDD:1 eng2:1 0.009917
82 VDD:1 eng4:1 0.044129
83 VDD:1 eng5:1 0.037848
84 VDD:1 eng6:1 0.023534
85 VDD:1 eng7:1 0.021326
86 VDD:1 eng8:1 0.029750
87 VDD:1 eng9:1 0.067362
88 VDD:1 mode 0.101791
89 VDD:1 ph\[0\]:1 0.003801
90 VDD:1 ph\[10\]:1 0.019833
91 VDD:1 ph\[11\]:1 0.055689
92 VDD:1 ph\[12\]:1 0.056542
93 VDD:1 ph\[13\]:1 0.069416
94 VDD:1 ph\[14\]:1 0.117670
95 VDD:1 ph[15] 0.019833
96 VDD:1 ph\[1\]:1 0.090784
97 VDD:1 ph\[2\]:1 0.037352
98 VDD:1 ph\[3\]:1 0.055136
99 VDD:1 ph\[4\]:1 0.009917
100 VDD:1 ph\[5\]:1 0.045972
101 VDD:1 ph\[6\]:1 0.024840
102 VDD:1 ph\[7\]:1 0.031697
103 VDD:1 ph\[8\]:1 0.013067
104 VDD:1 ph\[9\]:1 0.027436
105 VDD:1 q0:1 0.041768
106 VDD:1 q1:1 0.113639
107 VDD:1 q2:1 0.029750
108 VDD:1 q3:1 0.070649
109 VDD:1 q4:1 0.039764
110 VDD:1 q5:1 0.068880
111 VDD:1 q6:1 0.064127
112 VDD:1 q7:1 0.104941
113 VDD:1 q8:1 0.042458
114 VDD:1 q9:1 0.041182
115 VDD:1 rel_n_16p 0.009917
116 VDD:1 rel_n_2n 0.009917
117 VDD:1 rel_n_2p 0.009917
118 VDD:1 rel_n_4n 0.009917
119 VDD:1 rel_n_4p 0.009917
120 VDD:1 rel_n_64p 0.015925
121 VDD:1 rel_n_8p 0.009917
122 VDD:1 sel_hi_n_128p 0.021176
123 VDD:1 sel_hi_n_16p 0.019833
124 VDD:1 sel_hi_n_1n 0.009917
125 VDD:1 sel_hi_n_256p 0.003925
126 VDD:1 sel_hi_n_2p 0.009917
127 VDD:1 sel_hi_n_32p 0.009917
128 VDD:1 sel_hi_n_64p 0.025390
129 VDD:1 sel_in_n 0.043467
130 VDD:1 sel_lo_n_128n 0.009917
131 VDD:1 sel_lo_n_1n 0.009917
132 VDD:1 sel_lo_n_256n 0.009917
133 VDD:1 sel_lo_n_256p 0.009917
134 VDD:1 sel_lo_n_32n 0.009917
135 VDD:1 start 0.151978
*RES
1 VDD:1 VDD:2 0.072100
2 VDD:1 VDD:3 0.076600
3 VDD:1 VDD:4 0.061300
4 VDD:1 VDD:5 0.078000
5 VDD:1 VDD:6 0.074900
6 VDD:1 VDD:7 0.064400
7 VDD:1 VDD:8 0.066700
8 VDD:1 VDD:9 0.072700
9 VDD:1 VDD:10 0.069700
10 VDD:1 VDD:11 0.069600
11 VDD:1 VDD:12 0.067200
12 VDD:1 VDD:13 0.062800
13 VDD:1 VDD:14 0.013500
14 VDD:1 VDD:15 0.016800
15 VDD:1 VDD:16 0.023600
16 VDD:1 VDD:17 0.020200
17 VDD:1 VDD:18 0.136300
18 VDD:1 VDD:19 0.143100
19 VDD:1 VDD:20 0.146500
20 VDD:1 VDD:21 0.139700
21 VDD:1 VDD:22 0.149900
22 VDD:1 VDD:23 0.010200
23 VDD:1 VDD:24 0.149900
24 VDD:1 VDD:25 0.010200
25 VDD:1 VDD:26 0.218900
26 VDD:1 VDD:27 0.227800
27 VDD:1 VDD:28 0.308900
28 VDD:1 VDD:29 0.168400
29 VDD:1 VDD:30 0.088600
30 VDD:1 VDD:31 0.012400
31 VDD:1 VDD:32 0.093200
32 VDD:1 VDD:33 0.172100
33 VDD:1 VDD:34 0.089500
34 VDD:1 VDD:35 0.215100
35 VDD:1 VDD:36 0.092300
36 VDD:1 VDD:37 0.016200
37 VDD:1 VDD:38 0.305100
38 VDD:1 VDD:39 0.231600
39 VDD:1 VDD:40 0.191300
40 VDD:1 VDD:41 0.281300
41 VDD:1 VDD:42 0.255400
42 VDD:1 VDD:43 0.196000
43 VDD:1 VDD:44 0.116200
44 VDD:1 VDD:45 0.065700
45 VDD:1 VDD:46 0.039800
46 VDD:1 VDD:47 0.191300
47 VDD:1 VDD:48 0.281300
48 VDD:1 VDD:49 0.255400
49 VDD:1 VDD:50 0.196000
50 VDD:1 VDD:51 0.116200
51 VDD:1 VDD:52 0.065700
52 VDD:1 VDD:53 0.039800
53 VDD:1 VDD:54 0.026900
54 VDD:1 VDD:55 0.132900
55 VDD:1 VDD:56 0.026900
56 VDD:1 VDD:57 0.132900
57 VDD:1 VDD:58 0.122500
58 VDD:1 VDD:59 0.126100
59 VDD:1 VDD:60 0.126100
60 VDD:1 VDD:61 0.007400
61 VDD:1 VDD:62 0.073100
62 VDD:1 VDD:63 0.004400
63 VDD:1 VDD:64 0.083300
64 VDD:1 VDD:65 0.224100
65 VDD:1 VDD:66 0.220800
66 VDD:1 VDD:67 0.314100
67 VDD:1 VDD:68 0.309100
68 VDD:1 VDD:69 0.130800
69 VDD:1 VDD:70 0.163100
70 VDD:1 VDD:71 0.214000
71 VDD:1 VDD:72 0.098500
72 VDD:1 VDD:73 0.222500
73 VDD:1 VDD:74 0.146100
74 VDD:1 VDD:75 0.007400
75 VDD:1 VDD:76 0.073100
76 VDD:1 VDD:77 0.004400
77 VDD:1 VDD:78 0.083300
78 VDD:1 VDD:79 0.224100
79 VDD:1 VDD:80 0.220800
80 VDD:1 VDD:81 0.314100
81 VDD:1 VDD:82 0.309100
82 VDD:1 VDD:83 0.130800
83 VDD:1 VDD:84 0.163100
84 VDD:1 VDD:85 0.214000
85 VDD:1 VDD:86 0.098500
86 VDD:1 VDD:87 0.222500
87 VDD:1 VDD:88 0.146100
88 VDD:1 VDD:89 0.078400
89 VDD:1 VDD:90 0.215500
90 VDD:1 VDD:91 0.003300
91 VDD:1 VDD:92 0.219300
92 VDD:1 VDD:93 0.303800
93 VDD:1 VDD:94 0.151400
94 VDD:1 VDD:95 0.125500
95 VDD:1 VDD:96 0.155100
96 VDD:1 VDD:97 0.006600
97 VDD:1 VDD:98 0.211700
98 VDD:1 VDD:99 0.082200
99 VDD:1 VDD:100 0.300000
100 VDD:1 VDD:101 0.121700
101 VDD:1 VDD:102 0.223100
102 VDD:1 VDD:103 0.119400
103 VDD:1 VDD:104 0.018500
104 VDD:1 VDD:105 0.212800
105 VDD:1 VDD:106 0.008700
106 VDD:1 VDD:107 0.087100
107 VDD:1 VDD:108 0.233900
108 VDD:1 VDD:109 0.174500
109 VDD:1 VDD:110 0.094700
110 VDD:1 VDD:111 0.157500
111 VDD:1 VDD:112 0.225400
112 VDD:1 VDD:113 0.302800
113 VDD:1 VDD:114 0.297700
114 VDD:1 VDD:115 0.209400
115 VDD:1 VDD:116 0.084500
116 VDD:1 VDD:117 0.178800
117 VDD:1 VDD:118 0.229800
118 VDD:1 VDD:119 0.088800
119 VDD:1 VDD:120 0.115100
120 VDD:1 VDD:121 0.022800
121 VDD:1 VDD:122 0.161800
122 VDD:1 VDD:123 0.099000
123 VDD:1 VDD:124 0.082800
124 VDD:1 VDD:125 0.238200
125 VDD:1 VDD:126 0.012800
126 VDD:1 VDD:127 0.208400
127 VDD:1 VDD:128 0.205000
128 VDD:1 VDD:129 0.293300
129 VDD:1 VDD:130 0.298400
130 VDD:1 VDD:131 0.234300
131 VDD:1 VDD:132 0.288800
132 VDD:1 VDD:133 0.078300
133 VDD:1 VDD:134 0.103600
134 VDD:1 VDD:135 0.200500
135 VDD:1 VDD:136 0.203900
136 VDD:1 VDD:137 0.027300
137 VDD:1 VDD:138 0.242800
138 VDD:1 VDD:139 0.017200
139 VDD:1 VDD:140 0.093400
140 VDD:1 VDD:141 0.183300
141 VDD:1 VDD:142 0.166400
142 VDD:1 VDD:143 0.110500
143 VDD:1 VDD:144 0.293900
144 VDD:1 VDD:145 0.107200
145 VDD:1 VDD:146 0.197200
146 VDD:1 VDD:147 0.169600
147 VDD:1 VDD:148 0.096600
148 VDD:1 VDD:149 0.106800
149 VDD:1 VDD:150 0.020400
150 VDD:1 VDD:151 0.075000
151 VDD:1 VDD:152 0.246100
152 VDD:1 VDD:153 0.237600
153 VDD:1 VDD:154 0.285500
154 VDD:1 VDD:155 0.200600
155 VDD:1 VDD:156 0.186600
156 VDD:1 VDD:157 0.030500
157 VDD:1 VDD:158 0.290600
158 VDD:1 VDD:159 0.032800
159 VDD:1 VDD:160 0.283300
160 VDD:1 VDD:161 0.198400
161 VDD:1 VDD:162 0.098900
162 VDD:1 VDD:163 0.072800
163 VDD:1 VDD:164 0.188900
164 VDD:1 VDD:165 0.195000
165 VDD:1 VDD:166 0.239800
166 VDD:1 VDD:167 0.288400
167 VDD:1 VDD:168 0.248300
168 VDD:1 VDD:169 0.022700
169 VDD:1 VDD:170 0.171900
170 VDD:1 VDD:171 0.109100
171 VDD:1 VDD:172 0.105000
172 VDD:1 VDD:173 0.068100
173 VDD:1 VDD:174 0.190300
174 VDD:1 VDD:175 0.113700
175 VDD:1 VDD:176 0.193500
176 VDD:1 VDD:177 0.244500
177 VDD:1 VDD:178 0.283700
178 VDD:1 VDD:179 0.193700
179 VDD:1 VDD:180 0.100300
180 VDD:1 VDD:181 0.278600
181 VDD:1 VDD:182 0.103600
182 VDD:1 VDD:183 0.037400
183 VDD:1 VDD:184 0.253000
184 VDD:1 VDD:185 0.027300
185 VDD:1 VDD:186 0.176600
186 VDD:1 VDD:187 0.179000
187 VDD:1 VDD:188 0.246900
188 VDD:1 VDD:189 0.276200
189 VDD:1 VDD:190 0.029700
190 VDD:1 VDD:191 0.097900
191 VDD:1 VDD:192 0.106000
192 VDD:1 VDD:193 0.187900
193 VDD:1 VDD:194 0.179000
194 VDD:1 VDD:195 0.246900
195 VDD:1 VDD:196 0.276200
196 VDD:1 VDD:197 0.029700
197 VDD:1 VDD:198 0.097900
198 VDD:1 VDD:199 0.106000
199 VDD:1 VDD:200 0.187900
200 VDD:1 VDD:201 0.091400
201 VDD:1 VDD:202 0.261900
202 VDD:1 VDD:203 0.059100
203 VDD:1 VDD:204 0.112500
204 VDD:1 VDD:205 0.274700
205 VDD:1 VDD:206 0.269600
206 VDD:1 VDD:207 0.202500
207 VDD:1 VDD:208 0.185500
208 VDD:1 VDD:209 0.036200
209 VDD:1 VDD:210 0.046400
210 VDD:1 VDD:211 0.181300
211 VDD:1 VDD:212 0.184700
212 VDD:1 VDD:213 0.253400
213 VDD:1 VDD:214 0.122700
214 VDD:1 VDD:215 0.271600
215 VDD:1 VDD:216 0.181600
216 VDD:1 VDD:217 0.188600
217 VDD:1 VDD:218 0.205600
218 VDD:1 VDD:219 0.265000
219 VDD:1 VDD:220 0.125800
220 VDD:1 VDD:221 0.088300
221 VDD:1 VDD:222 0.178300
222 VDD:1 VDD:223 0.266500
223 VDD:1 VDD:224 0.256500
224 VDD:1 VDD:225 0.039300
225 VDD:1 VDD:226 0.115600
226 VDD:1 VDD:227 0.056100
227 VDD:1 VDD:228 0.049500
228 VDD:1 VDD:229 0.076600
229 VDD:1 VDD:230 0.072100
230 VDD:1 VDD:231 0.074900
231 VDD:1 VDD:232 0.064400
232 VDD:1 VDD:233 0.061300
233 VDD:1 VDD:234 0.078000
234 VDD:1 VDD:235 0.062800
235 VDD:1 VDD:236 0.067200
236 VDD:1 VDD:237 0.013500
237 VDD:1 VDD:238 0.020200
238 VDD:1 VDD:239 0.146500
239 VDD:1 VDD:240 0.139700
240 VDD:1 VDD:241 0.016800
241 VDD:1 VDD:242 0.023600
242 VDD:1 VDD:243 0.136300
243 VDD:1 VDD:244 0.143100
244 VDD:1 VDD:245 0.172100
245 VDD:1 VDD:246 0.089500
246 VDD:1 VDD:247 0.215100
247 VDD:1 VDD:248 0.092300
248 VDD:1 VDD:249 0.016200
249 VDD:1 VDD:250 0.305100
250 VDD:1 VDD:251 0.231600
251 VDD:1 VDD:252 0.218900
252 VDD:1 VDD:253 0.227800
253 VDD:1 VDD:254 0.308900
254 VDD:1 VDD:255 0.168400
255 VDD:1 VDD:256 0.088600
256 VDD:1 VDD:257 0.012400
257 VDD:1 VDD:258 0.093200
258 VDD:1 VDD:259 0.155100
259 VDD:1 VDD:260 0.006600
260 VDD:1 VDD:261 0.211700
261 VDD:1 VDD:262 0.082200
262 VDD:1 VDD:263 0.300000
263 VDD:1 VDD:264 0.121700
264 VDD:1 VDD:265 0.223100
265 VDD:1 VDD:266 0.078400
266 VDD:1 VDD:267 0.215500
267 VDD:1 VDD:268 0.003300
268 VDD:1 VDD:269 0.219300
269 VDD:1 VDD:270 0.303800
270 VDD:1 VDD:271 0.151400
271 VDD:1 VDD:272 0.125500
272 VDD:1 VDD:273 0.107200
273 VDD:1 VDD:274 0.197200
274 VDD:1 VDD:275 0.169600
275 VDD:1 VDD:276 0.096600
276 VDD:1 VDD:277 0.106800
277 VDD:1 VDD:278 0.020400
278 VDD:1 VDD:279 0.075000
279 VDD:1 VDD:280 0.246100
280 VDD:1 VDD:281 0.237600
281 VDD:1 VDD:282 0.285500
282 VDD:1 VDD:283 0.200600
283 VDD:1 VDD:284 0.186600
284 VDD:1 VDD:285 0.030500
285 VDD:1 VDD:286 0.290600
286 VDD:1 VDD:287 0.234300
287 VDD:1 VDD:288 0.288800
288 VDD:1 VDD:289 0.078300
289 VDD:1 VDD:290 0.103600
290 VDD:1 VDD:291 0.200500
291 VDD:1 VDD:292 0.203900
292 VDD:1 VDD:293 0.027300
293 VDD:1 VDD:294 0.242800
294 VDD:1 VDD:295 0.017200
295 VDD:1 VDD:296 0.093400
296 VDD:1 VDD:297 0.183300
297 VDD:1 VDD:298 0.166400
298 VDD:1 VDD:299 0.110500
299 VDD:1 VDD:300 0.293900
300 VDD:1 VDD:301 0.271600
301 VDD:1 VDD:302 0.181600
302 VDD:1 VDD:303 0.188600
303 VDD:1 VDD:304 0.205600
304 VDD:1 VDD:305 0.265000
305 VDD:1 VDD:306 0.125800
306 VDD:1 VDD:307 0.088300
307 VDD:1 VDD:308 0.178300
308 VDD:1 VDD:309 0.266500
309 VDD:1 VDD:310 0.256500
310 VDD:1 VDD:311 0.039300
311 VDD:1 VDD:312 0.115600
312 VDD:1 VDD:313 0.056100
313 VDD:1 VDD:314 0.049500
314 VDD:1 VDD:315 0.091400
315 VDD:1 VDD:316 0.261900
316 VDD:1 VDD:317 0.059100
317 VDD:1 VDD:318 0.112500
318 VDD:1 VDD:319 0.274700
319 VDD:1 VDD:320 0.269600
320 VDD:1 VDD:321 0.202500
321 VDD:1 VDD:322 0.185500
322 VDD:1 VDD:323 0.036200
323 VDD:1 VDD:324 0.046400
324 VDD:1 VDD:325 0.181300
325 VDD:1 VDD:326 0.184700
326 VDD:1 VDD:327 0.253400
327 VDD:1 VDD:328 0.122700
*END

*D_NET VSS 145.321522
*CONN
*P VSS B
*CAP
1 VSS 141.860910
2 VSS _000_:1 0.009917
3 VSS _001_:1 0.009917
4 VSS _002_:1 0.009917
5 VSS _003_:1 0.009917
6 VSS _004_:1 0.009917
7 VSS _005_:1 0.009917
8 VSS _006_:1 0.019833
9 VSS _009_\[0\]:1 0.009917
10 VSS _009_\[10\]:1 0.021294
11 VSS _009_\[11\]:1 0.013718
12 VSS _009_\[12\]:1 0.009917
13 VSS _009_\[13\]:1 0.012481
14 VSS _009_\[15\]:1 0.012481
15 VSS _009_\[1\]:1 0.025594
16 VSS _009_\[2\]:1 0.034619
17 VSS _009_\[3\]:1 0.029750
18 VSS _009_\[6\]:1 0.009917
19 VSS _009_\[7\]:1 0.015111
20 VSS _009_\[8\]:1 0.019833
21 VSS _009_\[9\]:1 0.009917
22 VSS _010_:1 0.014786
23 VSS _011_:1 0.019833
24 VSS _013_:1 0.019833
25 VSS _014_:1 0.009917
26 VSS _015_:1 0.014786
27 VSS _016_:1 0.009917
28 VSS _017_:1 0.009917
29 VSS _018_:1 0.009917
30 VSS _019_:1 0.009917
31 VSS _020_:1 0.009917
32 VSS _021_:1 0.009917
33 VSS _022_:1 0.009917
34 VSS _023_:1 0.022507
35 VSS _024_:1 0.023029
36 VSS _025_:1 0.024963
37 VSS _026_:1 0.019833
38 VSS _027_:1 0.009917
39 VSS _029_:1 0.009917
40 VSS _030_:1 0.019833
41 VSS _031_:1 0.041937
42 VSS _032_:1 0.032238
43 VSS _033_:1 0.032424
44 VSS _034_:1 0.014884
45 VSS _035_:1 0.009917
46 VSS _037_:1 0.029750
47 VSS _038_:1 0.014786
48 VSS _039_:1 0.009917
49 VSS _040_:1 0.012481
50 VSS _041_:1 0.035859
51 VSS _042_:1 0.013293
52 VSS _043_:1 0.034988
53 VSS _044_:1 0.011975
54 VSS _045_:1 0.009917
55 VSS _046_:1 0.033933
56 VSS _047_:1 0.009917
57 VSS _048_:1 0.031259
58 VSS _049_:1 0.034619
59 VSS _050_:1 0.037363
60 VSS _051_:1 0.009917
61 VSS _052_:1 0.022398
62 VSS _056_:1 0.009917
63 VSS _057_:1 0.019833
64 VSS _061_:1 0.026212
65 VSS _062_:1 0.016845
66 VSS c0_r 0.041725
67 VSS c1_r 0.033824
68 VSS c2_r 0.037760
69 VSS c3_r 0.009917
70 VSS c4_r 0.009917
71 VSS c5_r 0.019833
72 VSS c6_r 0.017791
73 VSS c8_r 0.009917
74 VSS c9_r 0.009917
75 VSS clk 0.011751
76 VSS clknet_0_clk:1 0.052257
77 VSS clknet_2_0__leaf_clk:1 0.098988
78 VSS clknet_2_1__leaf_clk:1 0.075631
79 VSS clknet_2_2__leaf_clk:1 0.072090
80 VSS clknet_2_3__leaf_clk:1 0.069416
81 VSS cmp 0.042340
82 VSS eng1:1 0.034211
83 VSS eng2:1 0.024800
84 VSS eng3:1 0.009917
85 VSS eng4:1 0.020648
86 VSS eng5:1 0.042231
87 VSS eng6:1 0.011621
88 VSS eng7:1 0.051337
89 VSS eng8:1 0.032314
90 VSS eng9:1 0.034312
91 VSS mode 0.107760
92 VSS ph\[0\]:1 0.019833
93 VSS ph\[10\]:1 0.014107
94 VSS ph\[11\]:1 0.062012
95 VSS ph\[12\]:1 0.018588
96 VSS ph\[13\]:1 0.049940
97 VSS ph\[14\]:1 0.057649
98 VSS ph[15] 0.029750
99 VSS ph\[1\]:1 0.009917
100 VSS ph\[2\]:1 0.042231
101 VSS ph\[3\]:1 0.040162
102 VSS ph\[4\]:1 0.009917
103 VSS ph\[5\]:1 0.032424
104 VSS ph\[6\]:1 0.044134
105 VSS ph\[7\]:1 0.021927
106 VSS ph\[8\]:1 0.017926
107 VSS ph\[9\]:1 0.020190
108 VSS q0:1 0.014786
109 VSS q1:1 0.084065
110 VSS q2:1 0.039005
111 VSS q3:1 0.051641
112 VSS q4:1 0.114241
113 VSS q5:1 0.051331
114 VSS q6:1 0.039666
115 VSS q7:1 0.076281
116 VSS q8:1 0.039666
117 VSS q9:1 0.032946
118 VSS rel_n_16n 0.003801
119 VSS rel_n_256n 0.009917
120 VSS sel_hi_n_128p 0.004089
121 VSS sel_hi_n_16n 0.008099
122 VSS sel_hi_n_1p 0.009917
123 VSS sel_hi_n_2n 0.008099
124 VSS sel_hi_n_2p 0.009917
125 VSS sel_hi_n_4p 0.009917
126 VSS sel_hi_n_64p 0.012011
127 VSS sel_in_n 0.100328
128 VSS sel_lo_n_128n 0.011975
129 VSS sel_lo_n_1p 0.002337
130 VSS sel_lo_n_256p 0.009917
131 VSS start 0.104692
*RES
1 VSS VSS:2 0.260500
2 VSS VSS:3 0.175000
3 VSS VSS:4 0.218800
4 VSS VSS:5 0.295200
5 VSS VSS:6 0.241300
6 VSS VSS:7 0.176100
7 VSS VSS:8 0.181800
8 VSS VSS:9 0.241900
9 VSS VSS:10 0.232500
10 VSS VSS:11 0.257700
11 VSS VSS:12 0.017700
12 VSS VSS:13 0.286200
13 VSS VSS:14 0.234800
14 VSS VSS:15 0.154600
15 VSS VSS:16 0.061400
16 VSS VSS:17 0.136000
17 VSS VSS:18 0.188300
18 VSS VSS:19 0.279000
19 VSS VSS:20 0.170200
20 VSS VSS:21 0.088400
21 VSS VSS:22 0.009800
22 VSS VSS:23 0.076900
23 VSS VSS:24 0.224900
24 VSS VSS:25 0.294700
25 VSS VSS:26 0.226300
26 VSS VSS:27 0.158400
27 VSS VSS:28 0.090800
28 VSS VSS:29 0.014600
29 VSS VSS:30 0.176400
30 VSS VSS:31 0.139900
31 VSS VSS:32 0.305200
32 VSS VSS:33 0.251600
33 VSS VSS:34 0.182900
34 VSS VSS:35 0.110700
35 VSS VSS:36 0.046200
36 VSS VSS:37 0.112800
37 VSS VSS:38 0.202300
38 VSS VSS:39 0.291900
39 VSS VSS:40 0.263900
40 VSS VSS:41 0.204700
41 VSS VSS:42 0.128300
42 VSS VSS:43 0.068500
43 VSS VSS:44 0.093400
44 VSS VSS:45 0.210300
45 VSS VSS:46 0.300300
46 VSS VSS:47 0.086000
47 VSS VSS:48 0.065400
48 VSS VSS:49 0.100500
49 VSS VSS:50 0.265300
50 VSS VSS:51 0.201500
51 VSS VSS:52 0.187700
52 VSS VSS:53 0.062400
53 VSS VSS:54 0.051500
54 VSS VSS:55 0.083400
55 VSS VSS:56 0.149700
56 VSS VSS:57 0.205300
57 VSS VSS:58 0.102900
58 VSS VSS:59 0.118500
59 VSS VSS:60 0.200200
60 VSS VSS:61 0.247300
61 VSS VSS:62 0.261200
62 VSS VSS:63 0.090900
63 VSS VSS:64 0.068200
64 VSS VSS:65 0.094600
65 VSS VSS:66 0.069200
66 VSS VSS:67 0.052900
67 VSS VSS:68 0.076100
68 VSS VSS:69 0.262400
69 VSS VSS:70 0.272300
70 VSS VSS:71 0.208300
71 VSS VSS:72 0.194600
72 VSS VSS:73 0.068100
73 VSS VSS:74 0.056500
74 VSS VSS:75 0.076900
75 VSS VSS:76 0.142800
76 VSS VSS:77 0.204200
77 VSS VSS:78 0.190300
78 VSS VSS:79 0.135900
79 VSS VSS:80 0.198200
80 VSS VSS:81 0.277200
81 VSS VSS:82 0.100600
82 VSS VSS:83 0.096000
83 VSS VSS:84 0.111600
84 VSS VSS:85 0.193200
85 VSS VSS:86 0.240300
86 VSS VSS:87 0.254200
87 VSS VSS:88 0.261800
88 VSS VSS:89 0.232400
89 VSS VSS:90 0.199700
90 VSS VSS:91 0.178500
91 VSS VSS:92 0.088800
92 VSS VSS:93 0.066800
93 VSS VSS:94 0.096800
94 VSS VSS:95 0.269400
95 VSS VSS:96 0.205500
96 VSS VSS:97 0.191700
97 VSS VSS:98 0.065700
98 VSS VSS:99 0.054300
99 VSS VSS:100 0.079500
100 VSS VSS:101 0.145600
101 VSS VSS:102 0.201100
102 VSS VSS:103 0.098800
103 VSS VSS:104 0.114400
104 VSS VSS:105 0.196100
105 VSS VSS:106 0.243100
106 VSS VSS:107 0.257100
107 VSS VSS:108 0.153800
108 VSS VSS:109 0.176400
109 VSS VSS:110 0.163800
110 VSS VSS:111 0.138900
111 VSS VSS:112 0.146100
112 VSS VSS:113 0.043100
113 VSS VSS:114 0.191900
114 VSS VSS:115 0.157000
115 VSS VSS:116 0.172900
116 VSS VSS:117 0.169400
117 VSS VSS:118 0.165900
118 VSS VSS:119 0.162500
119 VSS VSS:120 0.160300
120 VSS VSS:121 0.156900
121 VSS VSS:122 0.153400
122 VSS VSS:123 0.149900
123 VSS VSS:124 0.142400
124 VSS VSS:125 0.145900
125 VSS VSS:126 0.149400
126 VSS VSS:127 0.152800
127 VSS VSS:128 0.149500
128 VSS VSS:129 0.152900
129 VSS VSS:130 0.156300
130 VSS VSS:131 0.159700
131 VSS VSS:132 0.041700
132 VSS VSS:133 0.040600
133 VSS VSS:134 0.039700
134 VSS VSS:135 0.039100
135 VSS VSS:136 0.188600
136 VSS VSS:137 0.185300
137 VSS VSS:138 0.182000
138 VSS VSS:139 0.178700
139 VSS VSS:140 0.160300
140 VSS VSS:141 0.159000
141 VSS VSS:142 0.146400
142 VSS VSS:143 0.156300
143 VSS VSS:144 0.163100
144 VSS VSS:145 0.038900
145 VSS VSS:146 0.175400
146 VSS VSS:147 0.254200
147 VSS VSS:148 0.060800
148 VSS VSS:149 0.144000
149 VSS VSS:150 0.170000
150 VSS VSS:151 0.250000
151 VSS VSS:152 0.274200
152 VSS VSS:153 0.281100
153 VSS VSS:154 0.168700
154 VSS VSS:155 0.161900
155 VSS VSS:156 0.135900
156 VSS VSS:157 0.247800
157 VSS VSS:158 0.150400
158 VSS VSS:159 0.186300
159 VSS VSS:160 0.209200
160 VSS VSS:161 0.061300
161 VSS VSS:162 0.067600
162 VSS VSS:163 0.263200
163 VSS VSS:164 0.114500
164 VSS VSS:165 0.173700
165 VSS VSS:166 0.066900
166 VSS VSS:167 0.278700
167 VSS VSS:168 0.158400
168 VSS VSS:169 0.171600
169 VSS VSS:170 0.235300
170 VSS VSS:171 0.254300
171 VSS VSS:172 0.149400
172 VSS VSS:173 0.139800
173 VSS VSS:174 0.073900
174 VSS VSS:175 0.058900
175 VSS VSS:176 0.044300
176 VSS VSS:177 0.039600
177 VSS VSS:178 0.040900
178 VSS VSS:179 0.044900
179 VSS VSS:180 0.088400
180 VSS VSS:181 0.101100
181 VSS VSS:182 0.125700
182 VSS VSS:183 0.282600
183 VSS VSS:184 0.258400
184 VSS VSS:185 0.248000
185 VSS VSS:186 0.053300
186 VSS VSS:187 0.096000
187 VSS VSS:188 0.242300
188 VSS VSS:189 0.252700
189 VSS VSS:190 0.263000
190 VSS VSS:191 0.138200
191 VSS VSS:192 0.060100
192 VSS VSS:193 0.103000
193 VSS VSS:194 0.113300
194 VSS VSS:195 0.153300
195 VSS VSS:196 0.168900
196 VSS VSS:197 0.203700
197 VSS VSS:198 0.082100
198 VSS VSS:199 0.285400
199 VSS VSS:200 0.256300
200 VSS VSS:201 0.163300
201 VSS VSS:202 0.240000
202 VSS VSS:203 0.280900
203 VSS VSS:204 0.212900
204 VSS VSS:205 0.182800
205 VSS VSS:206 0.268200
206 VSS VSS:207 0.282600
207 VSS VSS:208 0.272200
208 VSS VSS:209 0.218600
209 VSS VSS:210 0.185900
210 VSS VSS:211 0.068900
211 VSS VSS:212 0.195700
212 VSS VSS:213 0.244000
213 VSS VSS:214 0.163000
214 VSS VSS:215 0.146200
215 VSS VSS:216 0.136700
216 VSS VSS:217 0.071800
217 VSS VSS:218 0.058800
218 VSS VSS:219 0.042800
219 VSS VSS:220 0.039400
220 VSS VSS:221 0.042000
221 VSS VSS:222 0.046600
222 VSS VSS:223 0.091600
223 VSS VSS:224 0.104400
224 VSS VSS:225 0.129000
225 VSS VSS:226 0.279200
226 VSS VSS:227 0.254900
227 VSS VSS:228 0.244500
228 VSS VSS:229 0.056000
229 VSS VSS:230 0.099300
230 VSS VSS:231 0.245700
231 VSS VSS:232 0.256100
232 VSS VSS:233 0.266500
233 VSS VSS:234 0.134700
234 VSS VSS:235 0.063500
235 VSS VSS:236 0.106400
236 VSS VSS:237 0.116800
237 VSS VSS:238 0.156700
238 VSS VSS:239 0.172400
239 VSS VSS:240 0.207200
240 VSS VSS:241 0.078600
241 VSS VSS:242 0.288900
242 VSS VSS:243 0.252800
243 VSS VSS:244 0.166800
244 VSS VSS:245 0.243500
245 VSS VSS:246 0.277400
246 VSS VSS:247 0.209500
247 VSS VSS:248 0.186300
248 VSS VSS:249 0.271700
249 VSS VSS:250 0.279100
250 VSS VSS:251 0.268700
251 VSS VSS:252 0.215100
252 VSS VSS:253 0.182500
253 VSS VSS:254 0.072000
254 VSS VSS:255 0.199100
255 VSS VSS:256 0.247400
256 VSS VSS:257 0.159700
257 VSS VSS:258 0.074700
258 VSS VSS:259 0.125300
259 VSS VSS:260 0.136100
260 VSS VSS:261 0.112400
261 VSS VSS:262 0.136500
262 VSS VSS:263 0.061800
263 VSS VSS:264 0.110900
264 VSS VSS:265 0.127700
265 VSS VSS:266 0.046700
266 VSS VSS:267 0.076900
267 VSS VSS:268 0.128400
268 VSS VSS:269 0.132800
269 VSS VSS:270 0.115700
270 VSS VSS:271 0.133200
271 VSS VSS:272 0.064700
272 VSS VSS:273 0.114200
273 VSS VSS:274 0.124300
274 VSS VSS:275 0.050000
275 VSS VSS:276 0.079200
276 VSS VSS:277 0.131500
277 VSS VSS:278 0.129500
278 VSS VSS:279 0.119000
279 VSS VSS:280 0.129800
280 VSS VSS:281 0.067700
281 VSS VSS:282 0.117500
282 VSS VSS:283 0.120800
283 VSS VSS:284 0.053300
284 VSS VSS:285 0.303700
285 VSS VSS:286 0.216900
286 VSS VSS:287 0.176400
287 VSS VSS:288 0.251900
288 VSS VSS:289 0.285100
289 VSS VSS:290 0.219600
290 VSS VSS:291 0.139100
291 VSS VSS:292 0.198500
292 VSS VSS:293 0.188800
293 VSS VSS:294 0.301900
294 VSS VSS:295 0.037600
295 VSS VSS:296 0.242100
296 VSS VSS:297 0.279000
297 VSS VSS:298 0.198700
298 VSS VSS:299 0.018800
299 VSS VSS:300 0.091900
300 VSS VSS:301 0.144100
301 VSS VSS:302 0.234800
302 VSS VSS:303 0.214400
303 VSS VSS:304 0.132400
304 VSS VSS:305 0.044000
305 VSS VSS:306 0.033300
306 VSS VSS:307 0.180700
307 VSS VSS:308 0.250500
308 VSS VSS:309 0.270500
309 VSS VSS:310 0.202500
310 VSS VSS:311 0.134700
311 VSS VSS:312 0.048900
312 VSS VSS:313 0.132400
313 VSS VSS:314 0.097400
314 VSS VSS:315 0.261200
315 VSS VSS:316 0.295400
316 VSS VSS:317 0.226400
317 VSS VSS:318 0.153000
318 VSS VSS:319 0.079700
319 VSS VSS:320 0.073300
320 VSS VSS:321 0.159300
321 VSS VSS:322 0.248200
322 VSS VSS:323 0.307000
323 VSS VSS:324 0.247300
324 VSS VSS:325 0.168600
325 VSS VSS:326 0.098600
326 VSS VSS:327 0.064600
327 VSS VSS:328 0.168100
328 VSS VSS:329 0.256900
329 VSS VSS:330 0.300200
330 VSS VSS:331 0.213600
331 VSS VSS:332 0.179700
332 VSS VSS:333 0.255300
333 VSS VSS:334 0.281600
334 VSS VSS:335 0.216100
335 VSS VSS:336 0.142500
336 VSS VSS:337 0.201900
337 VSS VSS:338 0.192200
338 VSS VSS:339 0.298400
339 VSS VSS:340 0.034400
340 VSS VSS:341 0.245600
341 VSS VSS:342 0.275500
342 VSS VSS:343 0.195200
343 VSS VSS:344 0.021900
344 VSS VSS:345 0.095400
345 VSS VSS:346 0.147600
346 VSS VSS:347 0.238300
347 VSS VSS:348 0.210900
348 VSS VSS:349 0.128900
349 VSS VSS:350 0.040600
350 VSS VSS:351 0.036700
351 VSS VSS:352 0.184200
352 VSS VSS:353 0.254000
353 VSS VSS:354 0.267000
354 VSS VSS:355 0.199000
355 VSS VSS:356 0.131200
356 VSS VSS:357 0.045600
357 VSS VSS:358 0.135900
358 VSS VSS:359 0.100700
359 VSS VSS:360 0.264700
360 VSS VSS:361 0.292000
361 VSS VSS:362 0.223000
362 VSS VSS:363 0.149600
363 VSS VSS:364 0.076700
364 VSS VSS:365 0.076200
365 VSS VSS:366 0.162600
366 VSS VSS:367 0.251700
367 VSS VSS:368 0.303600
368 VSS VSS:369 0.243900
369 VSS VSS:370 0.165300
370 VSS VSS:371 0.095800
371 VSS VSS:372 0.066200
372 VSS VSS:373 0.171400
373 VSS VSS:374 0.260400
374 VSS VSS:375 0.294600
375 VSS VSS:376 0.208000
376 VSS VSS:377 0.185100
377 VSS VSS:378 0.260900
378 VSS VSS:379 0.276000
379 VSS VSS:380 0.210500
380 VSS VSS:381 0.148000
381 VSS VSS:382 0.207500
382 VSS VSS:383 0.197800
383 VSS VSS:384 0.292700
384 VSS VSS:385 0.029400
385 VSS VSS:386 0.251300
386 VSS VSS:387 0.269700
387 VSS VSS:388 0.189500
388 VSS VSS:389 0.027200
389 VSS VSS:390 0.101100
390 VSS VSS:391 0.153300
391 VSS VSS:392 0.244000
392 VSS VSS:393 0.205200
393 VSS VSS:394 0.123200
394 VSS VSS:395 0.035000
395 VSS VSS:396 0.042200
396 VSS VSS:397 0.189900
397 VSS VSS:398 0.259700
398 VSS VSS:399 0.261300
399 VSS VSS:400 0.193300
400 VSS VSS:401 0.125500
401 VSS VSS:402 0.040300
402 VSS VSS:403 0.141600
403 VSS VSS:404 0.106100
404 VSS VSS:405 0.270400
405 VSS VSS:406 0.286300
406 VSS VSS:407 0.217300
407 VSS VSS:408 0.144100
408 VSS VSS:409 0.071900
409 VSS VSS:410 0.081200
410 VSS VSS:411 0.168200
411 VSS VSS:412 0.257400
412 VSS VSS:413 0.298000
413 VSS VSS:414 0.238300
414 VSS VSS:415 0.159900
415 VSS VSS:416 0.091200
416 VSS VSS:417 0.069200
417 VSS VSS:418 0.176800
418 VSS VSS:419 0.265900
419 VSS VSS:420 0.292000
420 VSS VSS:421 0.205500
421 VSS VSS:422 0.187600
422 VSS VSS:423 0.263400
423 VSS VSS:424 0.200400
424 VSS VSS:425 0.267100
425 VSS VSS:426 0.186900
426 VSS VSS:427 0.029700
427 VSS VSS:428 0.103700
428 VSS VSS:429 0.155900
429 VSS VSS:430 0.246600
430 VSS VSS:431 0.258700
431 VSS VSS:432 0.190700
432 VSS VSS:433 0.122900
433 VSS VSS:434 0.037800
434 VSS VSS:435 0.144200
435 VSS VSS:436 0.283700
436 VSS VSS:437 0.214700
437 VSS VSS:438 0.141600
438 VSS VSS:439 0.069700
439 VSS VSS:440 0.083500
440 VSS VSS:441 0.170800
441 VSS VSS:442 0.260000
442 VSS VSS:443 0.287100
443 VSS VSS:444 0.200700
444 VSS VSS:445 0.192400
445 VSS VSS:446 0.268400
446 VSS VSS:447 0.205400
447 VSS VSS:448 0.262100
448 VSS VSS:449 0.181800
449 VSS VSS:450 0.034500
450 VSS VSS:451 0.108700
451 VSS VSS:452 0.161000
452 VSS VSS:453 0.251700
453 VSS VSS:454 0.253600
454 VSS VSS:455 0.185700
455 VSS VSS:456 0.117900
456 VSS VSS:457 0.033300
457 VSS VSS:458 0.149200
458 VSS VSS:459 0.278700
459 VSS VSS:460 0.209800
460 VSS VSS:461 0.136800
461 VSS VSS:462 0.065600
462 VSS VSS:463 0.088000
463 VSS VSS:464 0.175700
464 VSS VSS:465 0.265000
465 VSS VSS:466 0.284500
466 VSS VSS:467 0.198200
467 VSS VSS:468 0.194900
468 VSS VSS:469 0.270900
469 VSS VSS:470 0.208000
470 VSS VSS:471 0.259400
471 VSS VSS:472 0.179200
472 VSS VSS:473 0.037000
473 VSS VSS:474 0.111300
474 VSS VSS:475 0.163600
475 VSS VSS:476 0.254300
476 VSS VSS:477 0.251000
477 VSS VSS:478 0.183100
478 VSS VSS:479 0.115300
479 VSS VSS:480 0.031000
480 VSS VSS:481 0.151800
481 VSS VSS:482 0.276100
482 VSS VSS:483 0.207200
483 VSS VSS:484 0.134300
484 VSS VSS:485 0.063500
485 VSS VSS:486 0.090400
486 VSS VSS:487 0.178200
487 VSS VSS:488 0.267500
488 VSS VSS:489 0.279800
489 VSS VSS:490 0.193500
490 VSS VSS:491 0.199600
491 VSS VSS:492 0.275700
492 VSS VSS:493 0.212800
493 VSS VSS:494 0.254600
494 VSS VSS:495 0.174300
495 VSS VSS:496 0.041800
496 VSS VSS:497 0.116200
497 VSS VSS:498 0.168400
498 VSS VSS:499 0.259200
499 VSS VSS:500 0.246100
500 VSS VSS:501 0.178200
501 VSS VSS:502 0.110500
502 VSS VSS:503 0.026800
503 VSS VSS:504 0.156700
504 VSS VSS:505 0.271300
505 VSS VSS:506 0.202400
506 VSS VSS:507 0.129600
507 VSS VSS:508 0.059800
508 VSS VSS:509 0.094800
509 VSS VSS:510 0.183000
510 VSS VSS:511 0.272400
511 VSS VSS:512 0.276300
512 VSS VSS:513 0.190200
513 VSS VSS:514 0.202900
514 VSS VSS:515 0.279100
515 VSS VSS:516 0.257500
516 VSS VSS:517 0.192200
517 VSS VSS:518 0.166100
518 VSS VSS:519 0.225900
519 VSS VSS:520 0.281000
520 VSS VSS:521 0.216200
521 VSS VSS:522 0.274100
522 VSS VSS:523 0.016700
523 VSS VSS:524 0.269900
524 VSS VSS:525 0.251100
525 VSS VSS:526 0.170800
526 VSS VSS:527 0.045200
527 VSS VSS:528 0.119700
528 VSS VSS:529 0.171900
529 VSS VSS:530 0.262600
530 VSS VSS:531 0.186500
531 VSS VSS:532 0.104600
532 VSS VSS:533 0.017700
533 VSS VSS:534 0.060600
534 VSS VSS:535 0.208500
535 VSS VSS:536 0.278300
536 VSS VSS:537 0.242700
537 VSS VSS:538 0.174700
538 VSS VSS:539 0.107100
539 VSS VSS:540 0.024000
540 VSS VSS:541 0.160200
541 VSS VSS:542 0.123900
542 VSS VSS:543 0.288900
543 VSS VSS:544 0.267800
544 VSS VSS:545 0.199000
545 VSS VSS:546 0.126300
546 VSS VSS:547 0.057200
547 VSS VSS:548 0.097900
548 VSS VSS:549 0.186400
549 VSS VSS:550 0.275800
550 VSS VSS:551 0.279700
551 VSS VSS:552 0.220300
552 VSS VSS:553 0.142700
553 VSS VSS:554 0.077700
554 VSS VSS:555 0.080900
555 VSS VSS:556 0.194500
556 VSS VSS:557 0.284200
557 VSS VSS:558 0.272900
558 VSS VSS:559 0.186900
559 VSS VSS:560 0.206300
560 VSS VSS:561 0.282500
561 VSS VSS:562 0.254100
562 VSS VSS:563 0.188800
563 VSS VSS:564 0.169400
564 VSS VSS:565 0.229300
565 VSS VSS:566 0.219700
566 VSS VSS:567 0.270600
567 VSS VSS:568 0.015700
568 VSS VSS:569 0.273400
569 VSS VSS:570 0.122400
570 VSS VSS:571 0.044500
571 VSS VSS:572 0.023000
572 VSS VSS:573 0.247600
573 VSS VSS:574 0.167400
574 VSS VSS:575 0.048600
575 VSS VSS:576 0.123100
576 VSS VSS:577 0.175400
577 VSS VSS:578 0.266100
578 VSS VSS:579 0.183000
579 VSS VSS:580 0.101100
580 VSS VSS:581 0.014800
581 VSS VSS:582 0.064000
582 VSS VSS:583 0.212000
583 VSS VSS:584 0.281800
584 VSS VSS:585 0.054600
585 VSS VSS:586 0.239200
586 VSS VSS:587 0.171300
587 VSS VSS:588 0.103600
588 VSS VSS:589 0.021400
589 VSS VSS:590 0.163600
590 VSS VSS:591 0.127300
591 VSS VSS:592 0.292300
592 VSS VSS:593 0.115000
593 VSS VSS:594 0.065300
594 VSS VSS:595 0.035800
595 VSS VSS:596 0.057200
596 VSS VSS:597 0.059900
597 VSS VSS:598 0.264400
598 VSS VSS:599 0.195600
599 VSS VSS:600 0.123000
600 VSS VSS:601 0.054800
601 VSS VSS:602 0.101200
602 VSS VSS:603 0.189800
603 VSS VSS:604 0.279300
604 VSS VSS:605 0.276300
605 VSS VSS:606 0.216900
606 VSS VSS:607 0.139500
607 VSS VSS:608 0.075500
608 VSS VSS:609 0.083300
609 VSS VSS:610 0.197800
610 VSS VSS:611 0.287600
611 VSS VSS:612 0.113800
612 VSS VSS:613 0.270400
613 VSS VSS:614 0.184400
614 VSS VSS:615 0.208800
615 VSS VSS:616 0.285100
616 VSS VSS:617 0.222300
617 VSS VSS:618 0.245000
618 VSS VSS:619 0.164700
619 VSS VSS:620 0.051200
620 VSS VSS:621 0.125700
621 VSS VSS:622 0.178000
622 VSS VSS:623 0.268800
623 VSS VSS:624 0.236600
624 VSS VSS:625 0.168700
625 VSS VSS:626 0.101000
626 VSS VSS:627 0.019600
627 VSS VSS:628 0.166300
628 VSS VSS:629 0.261800
629 VSS VSS:630 0.193000
630 VSS VSS:631 0.120500
631 VSS VSS:632 0.053000
632 VSS VSS:633 0.103600
633 VSS VSS:634 0.192400
634 VSS VSS:635 0.281900
635 VSS VSS:636 0.266300
636 VSS VSS:637 0.180500
637 VSS VSS:638 0.212800
638 VSS VSS:639 0.289200
639 VSS VSS:640 0.226400
640 VSS VSS:641 0.240800
641 VSS VSS:642 0.160600
642 VSS VSS:643 0.055300
643 VSS VSS:644 0.129900
644 VSS VSS:645 0.182200
645 VSS VSS:646 0.272900
646 VSS VSS:647 0.232400
647 VSS VSS:648 0.164500
648 VSS VSS:649 0.096900
649 VSS VSS:650 0.017200
650 VSS VSS:651 0.170400
651 VSS VSS:652 0.257600
652 VSS VSS:653 0.188900
653 VSS VSS:654 0.116600
654 VSS VSS:655 0.050300
655 VSS VSS:656 0.107400
656 VSS VSS:657 0.196500
657 VSS VSS:658 0.286000
658 VSS VSS:659 0.130100
659 VSS VSS:660 0.059000
660 VSS VSS:661 0.066500
661 VSS VSS:662 0.123000
662 VSS VSS:663 0.103400
663 VSS VSS:664 0.089100
664 VSS VSS:665 0.055000
665 VSS VSS:666 0.063600
666 VSS VSS:667 0.122900
667 VSS VSS:668 0.109500
668 VSS VSS:669 0.083400
669 VSS VSS:670 0.037800
670 VSS VSS:671 0.035000
671 VSS VSS:672 0.043100
672 VSS VSS:673 0.114000
673 VSS VSS:674 0.079500
674 VSS VSS:675 0.052400
675 VSS VSS:676 0.109800
676 VSS VSS:677 0.127600
677 VSS VSS:678 0.059500
678 VSS VSS:679 0.067900
679 VSS VSS:680 0.120100
680 VSS VSS:681 0.106800
681 VSS VSS:682 0.080800
682 VSS VSS:683 0.036600
683 VSS VSS:684 0.035900
684 VSS VSS:685 0.045000
685 VSS VSS:686 0.106900
686 VSS VSS:687 0.124200
687 VSS VSS:688 0.061200
688 VSS VSS:689 0.070700
689 VSS VSS:690 0.116300
690 VSS VSS:691 0.103100
691 VSS VSS:692 0.077300
692 VSS VSS:693 0.035800
693 VSS VSS:694 0.038200
694 VSS VSS:695 0.048300
695 VSS VSS:696 0.102900
696 VSS VSS:697 0.273400
697 VSS VSS:698 0.207900
698 VSS VSS:699 0.150500
699 VSS VSS:700 0.210100
700 VSS VSS:701 0.290100
701 VSS VSS:702 0.027300
702 VSS VSS:703 0.253900
703 VSS VSS:704 0.202500
704 VSS VSS:705 0.120600
705 VSS VSS:706 0.032500
706 VSS VSS:707 0.044800
707 VSS VSS:708 0.192500
708 VSS VSS:709 0.262300
709 VSS VSS:710 0.108600
710 VSS VSS:711 0.273000
711 VSS VSS:712 0.295400
712 VSS VSS:713 0.235800
713 VSS VSS:714 0.157500
714 VSS VSS:715 0.089200
715 VSS VSS:716 0.070600
716 VSS VSS:717 0.179200
717 VSS VSS:718 0.268500
718 VSS VSS:719 0.268400
719 VSS VSS:720 0.203000
720 VSS VSS:721 0.155400
721 VSS VSS:722 0.215100
722 VSS VSS:723 0.285000
723 VSS VSS:724 0.023300
724 VSS VSS:725 0.259000
725 VSS VSS:726 0.197500
726 VSS VSS:727 0.115600
727 VSS VSS:728 0.027700
728 VSS VSS:729 0.049800
729 VSS VSS:730 0.197600
730 VSS VSS:731 0.267400
731 VSS VSS:732 0.113400
732 VSS VSS:733 0.278000
733 VSS VSS:734 0.290400
734 VSS VSS:735 0.230900
735 VSS VSS:736 0.152800
736 VSS VSS:737 0.085500
737 VSS VSS:738 0.073600
738 VSS VSS:739 0.184000
739 VSS VSS:740 0.273400
740 VSS VSS:741 0.265800
741 VSS VSS:742 0.200400
742 VSS VSS:743 0.158000
743 VSS VSS:744 0.217600
744 VSS VSS:745 0.282400
745 VSS VSS:746 0.021400
746 VSS VSS:747 0.261600
747 VSS VSS:748 0.194900
748 VSS VSS:749 0.113000
749 VSS VSS:750 0.025200
750 VSS VSS:751 0.052300
751 VSS VSS:752 0.200200
752 VSS VSS:753 0.270000
753 VSS VSS:754 0.115900
754 VSS VSS:755 0.280600
755 VSS VSS:756 0.287900
756 VSS VSS:757 0.228300
757 VSS VSS:758 0.150400
758 VSS VSS:759 0.083500
759 VSS VSS:760 0.075300
760 VSS VSS:761 0.186500
761 VSS VSS:762 0.276000
762 VSS VSS:763 0.261000
763 VSS VSS:764 0.195700
764 VSS VSS:765 0.162700
765 VSS VSS:766 0.222400
766 VSS VSS:767 0.277500
767 VSS VSS:768 0.018300
768 VSS VSS:769 0.266400
769 VSS VSS:770 0.190000
770 VSS VSS:771 0.108100
771 VSS VSS:772 0.020700
772 VSS VSS:773 0.057100
773 VSS VSS:774 0.205100
774 VSS VSS:775 0.274900
775 VSS VSS:776 0.120500
776 VSS VSS:777 0.285400
777 VSS VSS:778 0.283100
778 VSS VSS:779 0.223600
779 VSS VSS:780 0.145900
780 VSS VSS:781 0.080100
781 VSS VSS:782 0.078500
782 VSS VSS:783 0.191100
783 VSS VSS:784 0.280700
784 VSS VSS:785 0.251500
785 VSS VSS:786 0.186300
786 VSS VSS:787 0.172000
787 VSS VSS:788 0.231900
788 VSS VSS:789 0.268000
789 VSS VSS:790 0.015400
790 VSS VSS:791 0.276000
791 VSS VSS:792 0.180400
792 VSS VSS:793 0.098500
793 VSS VSS:794 0.012800
794 VSS VSS:795 0.066600
795 VSS VSS:796 0.214700
796 VSS VSS:797 0.284500
797 VSS VSS:798 0.129800
798 VSS VSS:799 0.294900
799 VSS VSS:800 0.273700
800 VSS VSS:801 0.214400
801 VSS VSS:802 0.137100
802 VSS VSS:803 0.073800
803 VSS VSS:804 0.085200
804 VSS VSS:805 0.200300
805 VSS VSS:806 0.290200
806 VSS VSS:807 0.247300
807 VSS VSS:808 0.182200
808 VSS VSS:809 0.176000
809 VSS VSS:810 0.236000
810 VSS VSS:811 0.263800
811 VSS VSS:812 0.015800
812 VSS VSS:813 0.280200
813 VSS VSS:814 0.176300
814 VSS VSS:815 0.094400
815 VSS VSS:816 0.010300
816 VSS VSS:817 0.070800
817 VSS VSS:818 0.218800
818 VSS VSS:819 0.288600
819 VSS VSS:820 0.133800
820 VSS VSS:821 0.299100
821 VSS VSS:822 0.269600
822 VSS VSS:823 0.210400
823 VSS VSS:824 0.133400
824 VSS VSS:825 0.071300
825 VSS VSS:826 0.088400
826 VSS VSS:827 0.204300
827 VSS VSS:828 0.294300
828 VSS VSS:829 0.120300
829 VSS VSS:830 0.100800
830 VSS VSS:831 0.086600
831 VSS VSS:832 0.053000
832 VSS VSS:833 0.065800
833 VSS VSS:834 0.111100
834 VSS VSS:835 0.076700
835 VSS VSS:836 0.049600
836 VSS VSS:837 0.116200
837 VSS VSS:838 0.096700
838 VSS VSS:839 0.082600
839 VSS VSS:840 0.049800
840 VSS VSS:841 0.068800
841 VSS VSS:842 0.106900
842 VSS VSS:843 0.072400
843 VSS VSS:844 0.045400
844 VSS VSS:845 0.066800
845 VSS VSS:846 0.054800
846 VSS VSS:847 0.078500
847 VSS VSS:848 0.201400
848 VSS VSS:849 0.187400
849 VSS VSS:850 0.138700
850 VSS VSS:851 0.274400
851 VSS VSS:852 0.103500
852 VSS VSS:853 0.259000
853 VSS VSS:854 0.229600
854 VSS VSS:855 0.196800
855 VSS VSS:856 0.181400
856 VSS VSS:857 0.063200
857 VSS VSS:858 0.057500
858 VSS VSS:859 0.082000
859 VSS VSS:860 0.197200
860 VSS VSS:861 0.183200
861 VSS VSS:862 0.142800
862 VSS VSS:863 0.270200
863 VSS VSS:864 0.107700
864 VSS VSS:865 0.254900
865 VSS VSS:866 0.225500
866 VSS VSS:867 0.192800
867 VSS VSS:868 0.185500
868 VSS VSS:869 0.265200
869 VSS VSS:870 0.268400
870 VSS VSS:871 0.175400
871 VSS VSS:872 0.178800
872 VSS VSS:873 0.182900
873 VSS VSS:874 0.273500
874 VSS VSS:875 0.277500
875 VSS VSS:876 0.284500
876 VSS VSS:877 0.288400
877 VSS VSS:878 0.128500
878 VSS VSS:879 0.050500
879 VSS VSS:880 0.028700
880 VSS VSS:881 0.048700
881 VSS VSS:882 0.055400
882 VSS VSS:883 0.125900
883 VSS VSS:884 0.119800
884 VSS VSS:885 0.048000
885 VSS VSS:886 0.042000
886 VSS VSS:887 0.026200
887 VSS VSS:888 0.020700
888 VSS VSS:889 0.051200
889 VSS VSS:890 0.057100
890 VSS VSS:891 0.118300
891 VSS VSS:892 0.112500
892 VSS VSS:893 0.068300
893 VSS VSS:894 0.063100
894 VSS VSS:895 0.037000
895 VSS VSS:896 0.035200
896 VSS VSS:897 0.054400
897 VSS VSS:898 0.059300
898 VSS VSS:899 0.057300
899 VSS VSS:900 0.061900
900 VSS VSS:901 0.116900
901 VSS VSS:902 0.111600
902 VSS VSS:903 0.116300
903 VSS VSS:904 0.038600
904 VSS VSS:905 0.017800
905 VSS VSS:906 0.060500
906 VSS VSS:907 0.109200
907 VSS VSS:908 0.060200
908 VSS VSS:909 0.034600
909 VSS VSS:910 0.062200
910 VSS VSS:911 0.064700
911 VSS VSS:912 0.108700
912 VSS VSS:913 0.132500
913 VSS VSS:914 0.054500
914 VSS VSS:915 0.032400
915 VSS VSS:916 0.044900
916 VSS VSS:917 0.052700
917 VSS VSS:918 0.120800
918 VSS VSS:919 0.070600
919 VSS VSS:920 0.038000
920 VSS VSS:921 0.052400
921 VSS VSS:922 0.119100
922 VSS VSS:923 0.124700
923 VSS VSS:924 0.074100
924 VSS VSS:925 0.039800
925 VSS VSS:926 0.049300
926 VSS VSS:927 0.122600
927 VSS VSS:928 0.260500
928 VSS VSS:929 0.149400
929 VSS VSS:930 0.146200
930 VSS VSS:931 0.090900
931 VSS VSS:932 0.086000
932 VSS VSS:933 0.074700
933 VSS VSS:934 0.153800
934 VSS VSS:935 0.294600
935 VSS VSS:936 0.254200
936 VSS VSS:937 0.063200
937 VSS VSS:938 0.175400
938 VSS VSS:939 0.273500
939 VSS VSS:940 0.107700
940 VSS VSS:941 0.254900
941 VSS VSS:942 0.192800
942 VSS VSS:943 0.142800
943 VSS VSS:944 0.225500
944 VSS VSS:945 0.185500
945 VSS VSS:946 0.057500
946 VSS VSS:947 0.270200
947 VSS VSS:948 0.183200
948 VSS VSS:949 0.197200
949 VSS VSS:950 0.082000
950 VSS VSS:951 0.114500
951 VSS VSS:952 0.061300
952 VSS VSS:953 0.170000
953 VSS VSS:954 0.186300
954 VSS VSS:955 0.144000
955 VSS VSS:956 0.150400
956 VSS VSS:957 0.171600
957 VSS VSS:958 0.281100
958 VSS VSS:959 0.161900
959 VSS VSS:960 0.235300
960 VSS VSS:961 0.254300
961 VSS VSS:962 0.250000
962 VSS VSS:963 0.067600
963 VSS VSS:964 0.274200
964 VSS VSS:965 0.247800
965 VSS VSS:966 0.173700
966 VSS VSS:967 0.168700
967 VSS VSS:968 0.060800
968 VSS VSS:969 0.209200
969 VSS VSS:970 0.135900
970 VSS VSS:971 0.158400
971 VSS VSS:972 0.278700
972 VSS VSS:973 0.263200
973 VSS VSS:974 0.066900
974 VSS VSS:975 0.298000
975 VSS VSS:976 0.244000
976 VSS VSS:977 0.106100
977 VSS VSS:978 0.292700
978 VSS VSS:979 0.197800
979 VSS VSS:980 0.069200
980 VSS VSS:981 0.159900
981 VSS VSS:982 0.091200
982 VSS VSS:983 0.153300
983 VSS VSS:984 0.027200
984 VSS VSS:985 0.205200
985 VSS VSS:986 0.035000
986 VSS VSS:987 0.125500
987 VSS VSS:988 0.257400
988 VSS VSS:989 0.251300
989 VSS VSS:990 0.269700
990 VSS VSS:991 0.144100
991 VSS VSS:992 0.261300
992 VSS VSS:993 0.193300
993 VSS VSS:994 0.217300
994 VSS VSS:995 0.270400
995 VSS VSS:996 0.286300
996 VSS VSS:997 0.208000
997 VSS VSS:998 0.265900
998 VSS VSS:999 0.148000
999 VSS VSS:1000 0.081200
1000 VSS VSS:1001 0.185100
1001 VSS VSS:1002 0.260900
1002 VSS VSS:1003 0.238300
1003 VSS VSS:1004 0.259700
1004 VSS VSS:1005 0.071900
1005 VSS VSS:1006 0.141600
1006 VSS VSS:1007 0.210500
1007 VSS VSS:1008 0.276000
1008 VSS VSS:1009 0.029400
1009 VSS VSS:1010 0.189900
1010 VSS VSS:1011 0.189500
1011 VSS VSS:1012 0.101100
1012 VSS VSS:1013 0.176800
1013 VSS VSS:1014 0.123200
1014 VSS VSS:1015 0.040300
1015 VSS VSS:1016 0.207500
1016 VSS VSS:1017 0.042200
1017 VSS VSS:1018 0.168200
1018 VSS VSS:1019 0.146400
1019 VSS VSS:1020 0.159000
1020 VSS VSS:1021 0.175400
1021 VSS VSS:1022 0.163100
1022 VSS VSS:1023 0.038900
1023 VSS VSS:1024 0.156300
1024 VSS VSS:1025 0.138900
1025 VSS VSS:1026 0.163800
1026 VSS VSS:1027 0.191900
1027 VSS VSS:1028 0.176400
1028 VSS VSS:1029 0.043100
1029 VSS VSS:1030 0.146100
1030 VSS VSS:1031 0.110900
1031 VSS VSS:1032 0.061800
1032 VSS VSS:1033 0.125300
1033 VSS VSS:1034 0.136100
1034 VSS VSS:1035 0.136500
1035 VSS VSS:1036 0.046700
1036 VSS VSS:1037 0.112400
1037 VSS VSS:1038 0.127700
1038 VSS VSS:1039 0.265300
1039 VSS VSS:1040 0.149700
1040 VSS VSS:1041 0.118500
1041 VSS VSS:1042 0.200200
1042 VSS VSS:1043 0.102900
1043 VSS VSS:1044 0.083400
1044 VSS VSS:1045 0.051500
1045 VSS VSS:1046 0.062400
1046 VSS VSS:1047 0.261200
1047 VSS VSS:1048 0.201500
1048 VSS VSS:1049 0.187700
1049 VSS VSS:1050 0.065400
1050 VSS VSS:1051 0.247300
1051 VSS VSS:1052 0.205300
1052 VSS VSS:1053 0.100500
1053 VSS VSS:1054 0.068100
1054 VSS VSS:1055 0.068200
1055 VSS VSS:1056 0.094600
1056 VSS VSS:1057 0.142800
1057 VSS VSS:1058 0.076100
1058 VSS VSS:1059 0.076900
1059 VSS VSS:1060 0.056500
1060 VSS VSS:1061 0.069200
1061 VSS VSS:1062 0.193200
1062 VSS VSS:1063 0.100600
1063 VSS VSS:1064 0.096000
1064 VSS VSS:1065 0.190300
1065 VSS VSS:1066 0.232400
1066 VSS VSS:1067 0.272300
1067 VSS VSS:1068 0.199700
1068 VSS VSS:1069 0.277200
1069 VSS VSS:1070 0.254200
1070 VSS VSS:1071 0.135900
1071 VSS VSS:1072 0.178500
1072 VSS VSS:1073 0.208300
1073 VSS VSS:1074 0.240300
1074 VSS VSS:1075 0.111600
1075 VSS VSS:1076 0.261800
1076 VSS VSS:1077 0.198200
1077 VSS VSS:1078 0.052900
1078 VSS VSS:1079 0.204200
1079 VSS VSS:1080 0.262400
1080 VSS VSS:1081 0.194600
1081 VSS VSS:1082 0.252800
1082 VSS VSS:1083 0.042800
1083 VSS VSS:1084 0.071800
1084 VSS VSS:1085 0.247400
1085 VSS VSS:1086 0.136700
1086 VSS VSS:1087 0.134700
1087 VSS VSS:1088 0.078600
1088 VSS VSS:1089 0.279200
1089 VSS VSS:1090 0.209500
1090 VSS VSS:1091 0.244500
1091 VSS VSS:1092 0.254900
1092 VSS VSS:1093 0.199100
1093 VSS VSS:1094 0.186300
1094 VSS VSS:1095 0.166800
1095 VSS VSS:1096 0.277400
1096 VSS VSS:1097 0.215100
1097 VSS VSS:1098 0.129000
1098 VSS VSS:1099 0.245700
1099 VSS VSS:1100 0.042000
1100 VSS VSS:1101 0.256100
1101 VSS VSS:1102 0.072000
1102 VSS VSS:1103 0.099300
1103 VSS VSS:1104 0.266500
1104 VSS VSS:1105 0.279100
1105 VSS VSS:1106 0.159700
1106 VSS VSS:1107 0.116800
1107 VSS VSS:1108 0.182500
1108 VSS VSS:1109 0.063500
1109 VSS VSS:1110 0.046600
1110 VSS VSS:1111 0.106400
1111 VSS VSS:1112 0.268700
1112 VSS VSS:1113 0.039400
1113 VSS VSS:1114 0.243500
1114 VSS VSS:1115 0.056000
1115 VSS VSS:1116 0.271700
1116 VSS VSS:1117 0.091600
1117 VSS VSS:1118 0.058800
1118 VSS VSS:1119 0.288900
1119 VSS VSS:1120 0.104400
1120 VSS VSS:1121 0.156700
1121 VSS VSS:1122 0.207200
1122 VSS VSS:1123 0.172400
1123 VSS VSS:1124 0.125700
1124 VSS VSS:1125 0.068900
1125 VSS VSS:1126 0.182800
1126 VSS VSS:1127 0.282600
1127 VSS VSS:1128 0.252700
1128 VSS VSS:1129 0.163300
1129 VSS VSS:1130 0.060100
1130 VSS VSS:1131 0.039600
1131 VSS VSS:1132 0.263000
1132 VSS VSS:1133 0.258400
1133 VSS VSS:1134 0.218600
1134 VSS VSS:1135 0.139800
1135 VSS VSS:1136 0.101100
1136 VSS VSS:1137 0.248000
1137 VSS VSS:1138 0.163000
1138 VSS VSS:1139 0.195700
1139 VSS VSS:1140 0.040900
1140 VSS VSS:1141 0.073900
1141 VSS VSS:1142 0.280900
1142 VSS VSS:1143 0.272200
1143 VSS VSS:1144 0.103000
1144 VSS VSS:1145 0.044900
1145 VSS VSS:1146 0.203700
1146 VSS VSS:1147 0.082100
1147 VSS VSS:1148 0.285400
1148 VSS VSS:1149 0.138200
1149 VSS VSS:1150 0.053300
1150 VSS VSS:1151 0.113300
1151 VSS VSS:1152 0.282600
1152 VSS VSS:1153 0.153300
1153 VSS VSS:1154 0.044300
1154 VSS VSS:1155 0.256300
1155 VSS VSS:1156 0.168900
1156 VSS VSS:1157 0.212900
1157 VSS VSS:1158 0.185900
1158 VSS VSS:1159 0.088400
1159 VSS VSS:1160 0.242300
1160 VSS VSS:1161 0.268200
1161 VSS VSS:1162 0.096000
1162 VSS VSS:1163 0.244000
1163 VSS VSS:1164 0.240000
1164 VSS VSS:1165 0.058900
1165 VSS VSS:1166 0.234800
1166 VSS VSS:1167 0.257700
1167 VSS VSS:1168 0.182900
1168 VSS VSS:1169 0.154600
1169 VSS VSS:1170 0.204700
1170 VSS VSS:1171 0.158400
1171 VSS VSS:1172 0.251600
1172 VSS VSS:1173 0.170200
1173 VSS VSS:1174 0.139900
1174 VSS VSS:1175 0.112800
1175 VSS VSS:1176 0.263900
1176 VSS VSS:1177 0.076900
1177 VSS VSS:1178 0.009800
1178 VSS VSS:1179 0.176400
1179 VSS VSS:1180 0.188300
1180 VSS VSS:1181 0.176100
1181 VSS VSS:1182 0.175000
1182 VSS VSS:1183 0.017700
1183 VSS VSS:1184 0.181800
1184 VSS VSS:1185 0.136000
1185 VSS VSS:1186 0.218800
1186 VSS VSS:1187 0.286200
1187 VSS VSS:1188 0.295200
1188 VSS VSS:1189 0.279000
1189 VSS VSS:1190 0.232500
1190 VSS VSS:1191 0.305200
1191 VSS VSS:1192 0.241900
1192 VSS VSS:1193 0.294700
1193 VSS VSS:1194 0.300300
1194 VSS VSS:1195 0.202300
1195 VSS VSS:1196 0.061400
1196 VSS VSS:1197 0.241300
1197 VSS VSS:1198 0.046200
1198 VSS VSS:1199 0.068500
1199 VSS VSS:1200 0.128300
1200 VSS VSS:1201 0.291900
1201 VSS VSS:1202 0.110700
1202 VSS VSS:1203 0.090800
1203 VSS VSS:1204 0.088400
1204 VSS VSS:1205 0.224900
1205 VSS VSS:1206 0.014600
1206 VSS VSS:1207 0.226300
1207 VSS VSS:1208 0.093400
1208 VSS VSS:1209 0.210300
1209 VSS VSS:1210 0.120800
1210 VSS VSS:1211 0.124700
1211 VSS VSS:1212 0.074100
1212 VSS VSS:1213 0.049300
1213 VSS VSS:1214 0.039800
1214 VSS VSS:1215 0.122600
1215 VSS VSS:1216 0.119100
1216 VSS VSS:1217 0.070600
1217 VSS VSS:1218 0.038000
1218 VSS VSS:1219 0.052400
1219 VSS VSS:1220 0.017800
1220 VSS VSS:1221 0.060200
1221 VSS VSS:1222 0.109200
1222 VSS VSS:1223 0.060500
1223 VSS VSS:1224 0.034600
1224 VSS VSS:1225 0.064700
1225 VSS VSS:1226 0.038600
1226 VSS VSS:1227 0.108700
1227 VSS VSS:1228 0.062200
1228 VSS VSS:1229 0.112500
1229 VSS VSS:1230 0.111600
1230 VSS VSS:1231 0.059300
1231 VSS VSS:1232 0.020700
1232 VSS VSS:1233 0.057100
1233 VSS VSS:1234 0.042000
1234 VSS VSS:1235 0.061900
1235 VSS VSS:1236 0.035200
1236 VSS VSS:1237 0.063100
1237 VSS VSS:1238 0.119800
1238 VSS VSS:1239 0.116300
1239 VSS VSS:1240 0.128500
1240 VSS VSS:1241 0.132500
1241 VSS VSS:1242 0.052700
1242 VSS VSS:1243 0.054500
1243 VSS VSS:1244 0.044900
1244 VSS VSS:1245 0.032400
1245 VSS VSS:1246 0.050500
1246 VSS VSS:1247 0.028700
1247 VSS VSS:1248 0.048700
1248 VSS VSS:1249 0.055400
1249 VSS VSS:1250 0.288400
1250 VSS VSS:1251 0.284500
1251 VSS VSS:1252 0.182900
1252 VSS VSS:1253 0.178800
1253 VSS VSS:1254 0.247300
1254 VSS VSS:1255 0.251500
1255 VSS VSS:1256 0.172000
1256 VSS VSS:1257 0.273700
1257 VSS VSS:1258 0.066600
1258 VSS VSS:1259 0.137100
1259 VSS VSS:1260 0.186300
1260 VSS VSS:1261 0.085200
1261 VSS VSS:1262 0.294900
1262 VSS VSS:1263 0.284500
1263 VSS VSS:1264 0.012800
1264 VSS VSS:1265 0.073800
1265 VSS VSS:1266 0.015400
1266 VSS VSS:1267 0.214400
1267 VSS VSS:1268 0.268000
1268 VSS VSS:1269 0.290200
1269 VSS VSS:1270 0.180400
1270 VSS VSS:1271 0.276000
1271 VSS VSS:1272 0.129800
1272 VSS VSS:1273 0.200300
1273 VSS VSS:1274 0.231900
1274 VSS VSS:1275 0.098500
1275 VSS VSS:1276 0.214700
1276 VSS VSS:1277 0.294300
1277 VSS VSS:1278 0.176000
1278 VSS VSS:1279 0.218800
1279 VSS VSS:1280 0.094400
1280 VSS VSS:1281 0.236000
1281 VSS VSS:1282 0.204300
1282 VSS VSS:1283 0.269600
1283 VSS VSS:1284 0.070800
1284 VSS VSS:1285 0.133800
1285 VSS VSS:1286 0.182200
1286 VSS VSS:1287 0.280200
1287 VSS VSS:1288 0.010300
1288 VSS VSS:1289 0.176300
1289 VSS VSS:1290 0.071300
1290 VSS VSS:1291 0.210400
1291 VSS VSS:1292 0.263800
1292 VSS VSS:1293 0.015800
1293 VSS VSS:1294 0.288600
1294 VSS VSS:1295 0.133400
1295 VSS VSS:1296 0.299100
1296 VSS VSS:1297 0.088400
1297 VSS VSS:1298 0.261000
1298 VSS VSS:1299 0.265800
1299 VSS VSS:1300 0.228300
1300 VSS VSS:1301 0.025200
1301 VSS VSS:1302 0.083500
1302 VSS VSS:1303 0.200200
1303 VSS VSS:1304 0.270000
1304 VSS VSS:1305 0.150400
1305 VSS VSS:1306 0.021400
1306 VSS VSS:1307 0.113000
1307 VSS VSS:1308 0.052300
1308 VSS VSS:1309 0.261600
1309 VSS VSS:1310 0.200400
1310 VSS VSS:1311 0.287900
1311 VSS VSS:1312 0.217600
1312 VSS VSS:1313 0.276000
1313 VSS VSS:1314 0.186500
1314 VSS VSS:1315 0.115900
1315 VSS VSS:1316 0.282400
1316 VSS VSS:1317 0.158000
1317 VSS VSS:1318 0.194900
1318 VSS VSS:1319 0.280600
1319 VSS VSS:1320 0.075300
1320 VSS VSS:1321 0.195700
1321 VSS VSS:1322 0.280700
1322 VSS VSS:1323 0.222400
1323 VSS VSS:1324 0.120500
1324 VSS VSS:1325 0.080100
1325 VSS VSS:1326 0.274900
1326 VSS VSS:1327 0.283100
1327 VSS VSS:1328 0.020700
1328 VSS VSS:1329 0.277500
1329 VSS VSS:1330 0.266400
1330 VSS VSS:1331 0.285400
1331 VSS VSS:1332 0.223600
1332 VSS VSS:1333 0.018300
1333 VSS VSS:1334 0.108100
1334 VSS VSS:1335 0.145900
1335 VSS VSS:1336 0.190000
1336 VSS VSS:1337 0.078500
1337 VSS VSS:1338 0.162700
1338 VSS VSS:1339 0.191100
1339 VSS VSS:1340 0.205100
1340 VSS VSS:1341 0.057100
1341 VSS VSS:1342 0.116200
1342 VSS VSS:1343 0.120300
1343 VSS VSS:1344 0.076700
1344 VSS VSS:1345 0.086600
1345 VSS VSS:1346 0.049600
1346 VSS VSS:1347 0.053000
1347 VSS VSS:1348 0.111100
1348 VSS VSS:1349 0.100800
1349 VSS VSS:1350 0.065800
1350 VSS VSS:1351 0.096700
1351 VSS VSS:1352 0.068800
1352 VSS VSS:1353 0.049800
1353 VSS VSS:1354 0.106900
1354 VSS VSS:1355 0.082600
1355 VSS VSS:1356 0.045400
1356 VSS VSS:1357 0.072400
1357 VSS VSS:1358 0.281000
1358 VSS VSS:1359 0.277500
1359 VSS VSS:1360 0.079200
1360 VSS VSS:1361 0.076900
1361 VSS VSS:1362 0.114200
1362 VSS VSS:1363 0.115700
1363 VSS VSS:1364 0.064700
1364 VSS VSS:1365 0.128400
1365 VSS VSS:1366 0.050000
1366 VSS VSS:1367 0.124300
1367 VSS VSS:1368 0.133200
1368 VSS VSS:1369 0.132800
1369 VSS VSS:1370 0.129500
1370 VSS VSS:1371 0.129800
1371 VSS VSS:1372 0.053300
1372 VSS VSS:1373 0.067700
1373 VSS VSS:1374 0.120800
1374 VSS VSS:1375 0.131500
1375 VSS VSS:1376 0.117500
1376 VSS VSS:1377 0.119000
1377 VSS VSS:1378 0.124200
1378 VSS VSS:1379 0.127600
1379 VSS VSS:1380 0.080800
1380 VSS VSS:1381 0.120100
1381 VSS VSS:1382 0.106900
1382 VSS VSS:1383 0.067900
1383 VSS VSS:1384 0.045000
1384 VSS VSS:1385 0.035900
1385 VSS VSS:1386 0.036600
1386 VSS VSS:1387 0.059500
1387 VSS VSS:1388 0.106800
1388 VSS VSS:1389 0.103100
1389 VSS VSS:1390 0.116300
1390 VSS VSS:1391 0.077300
1391 VSS VSS:1392 0.070700
1392 VSS VSS:1393 0.102900
1393 VSS VSS:1394 0.038200
1394 VSS VSS:1395 0.061200
1395 VSS VSS:1396 0.048300
1396 VSS VSS:1397 0.035800
1397 VSS VSS:1398 0.266300
1398 VSS VSS:1399 0.270400
1399 VSS VSS:1400 0.222300
1400 VSS VSS:1401 0.192400
1401 VSS VSS:1402 0.125700
1402 VSS VSS:1403 0.101000
1403 VSS VSS:1404 0.019600
1404 VSS VSS:1405 0.053000
1405 VSS VSS:1406 0.164700
1406 VSS VSS:1407 0.285100
1407 VSS VSS:1408 0.178000
1408 VSS VSS:1409 0.261800
1409 VSS VSS:1410 0.051200
1410 VSS VSS:1411 0.184400
1411 VSS VSS:1412 0.268800
1412 VSS VSS:1413 0.168700
1413 VSS VSS:1414 0.120500
1414 VSS VSS:1415 0.103600
1415 VSS VSS:1416 0.166300
1416 VSS VSS:1417 0.208800
1417 VSS VSS:1418 0.281900
1418 VSS VSS:1419 0.236600
1419 VSS VSS:1420 0.245000
1420 VSS VSS:1421 0.193000
1421 VSS VSS:1422 0.212800
1422 VSS VSS:1423 0.055300
1423 VSS VSS:1424 0.289200
1424 VSS VSS:1425 0.096900
1425 VSS VSS:1426 0.017200
1426 VSS VSS:1427 0.050300
1427 VSS VSS:1428 0.129900
1428 VSS VSS:1429 0.196500
1429 VSS VSS:1430 0.160600
1430 VSS VSS:1431 0.257600
1431 VSS VSS:1432 0.182200
1432 VSS VSS:1433 0.240800
1433 VSS VSS:1434 0.164500
1434 VSS VSS:1435 0.180500
1435 VSS VSS:1436 0.272900
1436 VSS VSS:1437 0.226400
1437 VSS VSS:1438 0.116600
1438 VSS VSS:1439 0.170400
1439 VSS VSS:1440 0.232400
1440 VSS VSS:1441 0.107400
1441 VSS VSS:1442 0.188900
1442 VSS VSS:1443 0.286000
1443 VSS VSS:1444 0.300200
1444 VSS VSS:1445 0.303700
1445 VSS VSS:1446 0.214400
1446 VSS VSS:1447 0.250500
1447 VSS VSS:1448 0.307000
1448 VSS VSS:1449 0.180700
1449 VSS VSS:1450 0.295400
1450 VSS VSS:1451 0.198700
1451 VSS VSS:1452 0.202500
1452 VSS VSS:1453 0.168600
1453 VSS VSS:1454 0.097400
1454 VSS VSS:1455 0.226400
1455 VSS VSS:1456 0.279000
1456 VSS VSS:1457 0.247300
1457 VSS VSS:1458 0.251900
1458 VSS VSS:1459 0.132400
1459 VSS VSS:1460 0.219600
1460 VSS VSS:1461 0.091900
1461 VSS VSS:1462 0.144100
1462 VSS VSS:1463 0.188800
1463 VSS VSS:1464 0.176400
1464 VSS VSS:1465 0.198500
1465 VSS VSS:1466 0.037600
1466 VSS VSS:1467 0.018800
1467 VSS VSS:1468 0.242100
1468 VSS VSS:1469 0.234800
1469 VSS VSS:1470 0.248200
1470 VSS VSS:1471 0.139100
1471 VSS VSS:1472 0.261200
1472 VSS VSS:1473 0.256900
1473 VSS VSS:1474 0.216900
1474 VSS VSS:1475 0.048900
1475 VSS VSS:1476 0.044000
1476 VSS VSS:1477 0.064600
1477 VSS VSS:1478 0.073300
1478 VSS VSS:1479 0.033300
1479 VSS VSS:1480 0.134700
1480 VSS VSS:1481 0.153000
1481 VSS VSS:1482 0.132400
1482 VSS VSS:1483 0.301900
1483 VSS VSS:1484 0.285100
1484 VSS VSS:1485 0.079700
1485 VSS VSS:1486 0.168100
1486 VSS VSS:1487 0.270500
1487 VSS VSS:1488 0.159300
1488 VSS VSS:1489 0.098600
1489 VSS VSS:1490 0.045600
1490 VSS VSS:1491 0.128900
1491 VSS VSS:1492 0.184200
1492 VSS VSS:1493 0.275500
1493 VSS VSS:1494 0.131200
1494 VSS VSS:1495 0.040600
1495 VSS VSS:1496 0.076200
1496 VSS VSS:1497 0.036700
1497 VSS VSS:1498 0.192200
1498 VSS VSS:1499 0.179700
1499 VSS VSS:1500 0.171400
1500 VSS VSS:1501 0.201900
1501 VSS VSS:1502 0.213600
1502 VSS VSS:1503 0.034400
1503 VSS VSS:1504 0.021900
1504 VSS VSS:1505 0.245600
1505 VSS VSS:1506 0.238300
1506 VSS VSS:1507 0.147600
1507 VSS VSS:1508 0.142500
1508 VSS VSS:1509 0.264700
1509 VSS VSS:1510 0.243900
1510 VSS VSS:1511 0.210900
1511 VSS VSS:1512 0.292000
1512 VSS VSS:1513 0.260400
1513 VSS VSS:1514 0.199000
1514 VSS VSS:1515 0.251700
1515 VSS VSS:1516 0.254000
1516 VSS VSS:1517 0.267000
1517 VSS VSS:1518 0.100700
1518 VSS VSS:1519 0.095800
1519 VSS VSS:1520 0.195200
1520 VSS VSS:1521 0.076700
1521 VSS VSS:1522 0.162600
1522 VSS VSS:1523 0.149600
1523 VSS VSS:1524 0.281600
1524 VSS VSS:1525 0.298400
1525 VSS VSS:1526 0.255300
1526 VSS VSS:1527 0.066200
1527 VSS VSS:1528 0.135900
1528 VSS VSS:1529 0.223000
1529 VSS VSS:1530 0.216100
1530 VSS VSS:1531 0.303600
1531 VSS VSS:1532 0.095400
1532 VSS VSS:1533 0.165300
1533 VSS VSS:1534 0.160300
1534 VSS VSS:1535 0.157000
1535 VSS VSS:1536 0.165900
1536 VSS VSS:1537 0.172900
1537 VSS VSS:1538 0.188600
1538 VSS VSS:1539 0.182000
1539 VSS VSS:1540 0.156300
1540 VSS VSS:1541 0.149500
1541 VSS VSS:1542 0.160300
1542 VSS VSS:1543 0.153400
1543 VSS VSS:1544 0.149400
1544 VSS VSS:1545 0.039700
1545 VSS VSS:1546 0.142400
1546 VSS VSS:1547 0.041700
1547 VSS VSS:1548 0.162500
1548 VSS VSS:1549 0.178700
1549 VSS VSS:1550 0.152800
1550 VSS VSS:1551 0.156900
1551 VSS VSS:1552 0.152900
1552 VSS VSS:1553 0.185300
1553 VSS VSS:1554 0.039100
1554 VSS VSS:1555 0.149900
1555 VSS VSS:1556 0.159700
1556 VSS VSS:1557 0.169400
1557 VSS VSS:1558 0.040600
1558 VSS VSS:1559 0.145900
1559 VSS VSS:1560 0.279800
1560 VSS VSS:1561 0.284500
1561 VSS VSS:1562 0.134300
1562 VSS VSS:1563 0.111300
1563 VSS VSS:1564 0.198200
1564 VSS VSS:1565 0.267500
1565 VSS VSS:1566 0.151800
1566 VSS VSS:1567 0.179200
1567 VSS VSS:1568 0.178200
1568 VSS VSS:1569 0.270900
1569 VSS VSS:1570 0.063500
1570 VSS VSS:1571 0.276100
1571 VSS VSS:1572 0.207200
1572 VSS VSS:1573 0.251000
1573 VSS VSS:1574 0.115300
1574 VSS VSS:1575 0.208000
1575 VSS VSS:1576 0.259400
1576 VSS VSS:1577 0.037000
1577 VSS VSS:1578 0.090400
1578 VSS VSS:1579 0.194900
1579 VSS VSS:1580 0.183100
1580 VSS VSS:1581 0.163600
1581 VSS VSS:1582 0.031000
1582 VSS VSS:1583 0.254300
1583 VSS VSS:1584 0.193500
1584 VSS VSS:1585 0.212800
1585 VSS VSS:1586 0.116200
1586 VSS VSS:1587 0.254600
1587 VSS VSS:1588 0.199600
1588 VSS VSS:1589 0.094800
1589 VSS VSS:1590 0.183000
1590 VSS VSS:1591 0.174300
1591 VSS VSS:1592 0.275700
1592 VSS VSS:1593 0.271300
1593 VSS VSS:1594 0.110500
1594 VSS VSS:1595 0.259200
1595 VSS VSS:1596 0.168400
1596 VSS VSS:1597 0.202400
1597 VSS VSS:1598 0.041800
1598 VSS VSS:1599 0.178200
1599 VSS VSS:1600 0.129600
1600 VSS VSS:1601 0.246100
1601 VSS VSS:1602 0.059800
1602 VSS VSS:1603 0.156700
1603 VSS VSS:1604 0.026800
1604 VSS VSS:1605 0.272400
*END

*D_NET Z 0.706354
*CAP
1 Z:1 0.706354
*RES
1 Z:1 Z:2 0.176100
2 Z:1 Z:3 0.290800
3 Z:1 Z:4 0.179300
4 Z:1 Z:5 0.284800
5 Z:1 Z:6 0.179300
6 Z:1 Z:7 0.284800
7 Z:1 Z:8 0.290800
8 Z:1 Z:9 0.176100
*END

*D_NET ZN 0.780793
*CAP
1 ZN:1 0.775504
2 ZN:1 clknet_2_2__leaf_clk:1 0.005289
*RES
1 ZN:1 ZN:2 0.452000
2 ZN:1 ZN:3 0.441900
3 ZN:1 ZN:4 0.317400
4 ZN:1 ZN:5 0.458800
5 ZN:1 ZN:6 0.317000
6 ZN:1 ZN:7 0.448600
*END

*D_NET _000_ 1.745722
*CONN
*I _229_:D B
*I _136_:ZN B
*CAP
1 _000_:1 1.694113
2 _000_:1 _001_:1 0.002568
3 _000_:1 _036_:1 0.004628
4 _000_:1 _043_:1 0.005637
5 _000_:1 _044_:1 0.004628
6 _000_:1 _046_:1 0.001753
7 _000_:1 clknet_2_0__leaf_clk:1 0.018511
8 _000_:1 ph\[13\]:1 0.004628
9 _000_:1 q2:1 0.004628
10 _000_:1 q3:1 0.004628
*RES
1 _000_:1 _000_:2 18.561100
2 _000_:1 _000_:3 13.033500
3 _000_:1 _000_:4 5.885500
4 _000_:1 _000_:5 4.521400
5 _000_:1 _000_:6 11.106000
6 _000_:1 _000_:7 11.920700
7 _000_:1 _229_:D 0.000000
8 _000_:1 _136_:ZN 0.000000
*END

*D_NET _001_ 2.239887
*CONN
*I _228_:D B
*I _137_:ZN B
*CAP
1 _001_:1 2.200013
2 _001_:1 _030_:1 0.004628
3 _001_:1 _036_:1 0.004628
4 _001_:1 _042_:1 0.001009
5 _001_:1 _043_:1 0.001169
6 _001_:1 _044_:1 0.004628
7 _001_:1 ph\[13\]:1 0.005301
8 _001_:1 q2:1 0.013883
9 _001_:1 q3:1 0.004628
*RES
1 _001_:1 _001_:2 14.889800
2 _001_:1 _001_:3 18.606500
3 _001_:1 _001_:4 10.436100
4 _001_:1 _001_:5 11.559900
5 _001_:1 _001_:6 5.753100
6 _001_:1 _001_:7 6.122900
7 _001_:1 _228_:D 0.000000
8 _001_:1 _137_:ZN 0.000000
*END

*D_NET _002_ 1.227491
*CONN
*I _227_:D B
*I _139_:ZN B
*CAP
1 _002_:1 1.220083
2 _002_:1 _030_:1 0.005289
3 _002_:1 _043_:1 0.002119
*RES
1 _002_:1 _002_:2 8.798100
2 _002_:1 _002_:3 18.541200
3 _002_:1 _002_:4 13.931100
4 _002_:1 _002_:5 13.013000
5 _002_:1 _002_:6 0.959500
6 _002_:1 _002_:7 7.584000
7 _002_:1 _227_:D 0.000000
8 _002_:1 _139_:ZN 0.000000
*END

*D_NET _003_ 1.555503
*CONN
*I _226_:D B
*I _140_:ZN B
*CAP
1 _003_:1 1.531243
2 _003_:1 _046_:1 0.004628
3 _003_:1 clknet_2_0__leaf_clk:1 0.019632
*RES
1 _003_:1 _003_:2 18.343100
2 _003_:1 _003_:3 12.789500
3 _003_:1 _003_:4 4.559600
4 _003_:1 _003_:5 5.847100
5 _003_:1 _003_:6 11.546200
6 _003_:1 _003_:7 11.216600
7 _003_:1 _226_:D 0.000000
8 _003_:1 _140_:ZN 0.000000
*END

*D_NET _004_ 1.631728
*CONN
*I _225_:D B
*I _141_:ZN B
*CAP
1 _004_:1 1.562358
2 _004_:1 _007_:1 0.007195
3 _004_:1 _037_:1 0.006210
4 _004_:1 _040_:1 0.004628
5 _004_:1 _052_:1 0.001753
6 _004_:1 c6_r 0.004628
7 _004_:1 clknet_0_clk:1 0.004628
8 _004_:1 clknet_2_2__leaf_clk:1 0.018511
9 _004_:1 eng5:1 0.004628
10 _004_:1 q5:1 0.017189
*RES
1 _004_:1 _004_:2 13.222700
2 _004_:1 _004_:3 18.392800
3 _004_:1 _004_:4 12.155100
4 _004_:1 _004_:5 11.266700
5 _004_:1 _004_:6 4.962500
6 _004_:1 _004_:7 4.482200
7 _004_:1 _225_:D 0.000000
8 _004_:1 _141_:ZN 0.000000
*END

*D_NET _005_ 1.899090
*CONN
*I _224_:D B
*I _142_:ZN B
*CAP
1 _005_:1 1.805831
2 _005_:1 _006_:1 0.002568
3 _005_:1 _038_:1 0.005637
4 _005_:1 _039_:1 0.004628
5 _005_:1 _051_:1 0.006381
6 _005_:1 clknet_2_2__leaf_clk:1 0.037022
7 _005_:1 eng7:1 0.004628
8 _005_:1 ph[15] 0.004628
9 _005_:1 q6:1 0.004628
10 _005_:1 q8:1 0.013883
11 _005_:1 q9:1 0.004628
12 _005_:1 sel_in_n 0.004628
*RES
1 _005_:1 _005_:2 13.198800
2 _005_:1 _005_:3 18.461600
3 _005_:1 _005_:4 10.965600
4 _005_:1 _005_:5 11.192100
5 _005_:1 _005_:6 6.838900
6 _005_:1 _005_:7 4.911100
7 _005_:1 _224_:D 0.000000
8 _005_:1 _142_:ZN 0.000000
*END

*D_NET _006_ 2.303277
*CONN
*I _223_:D B
*I _144_:ZN B
*CAP
1 _006_:1 2.233082
2 _006_:1 _038_:1 0.001169
3 _006_:1 _039_:1 0.005637
4 _006_:1 _050_:1 0.004628
5 _006_:1 _051_:1 0.004628
6 _006_:1 _052_:1 0.004628
7 _006_:1 _053_:1 0.009255
8 _006_:1 clknet_0_clk:1 0.001284
9 _006_:1 clknet_2_2__leaf_clk:1 0.004628
10 _006_:1 clknet_2_3__leaf_clk:1 0.001122
11 _006_:1 eng7:1 0.004628
12 _006_:1 ph\[13\]:1 0.005448
13 _006_:1 ph[15] 0.004628
14 _006_:1 q5:1 0.004628
15 _006_:1 q6:1 0.004628
16 _006_:1 q8:1 0.004628
17 _006_:1 q9:1 0.004628
*RES
1 _006_:1 _006_:2 18.242300
2 _006_:1 _006_:3 15.294800
3 _006_:1 _006_:4 6.863100
4 _006_:1 _006_:5 6.560900
5 _006_:1 _006_:6 10.096700
6 _006_:1 _006_:7 10.457800
7 _006_:1 _223_:D 0.000000
8 _006_:1 _144_:ZN 0.000000
*END

*D_NET _007_ 4.173424
*CONN
*I _222_:D B
*I _145_:ZN B
*CAP
1 _007_:1 4.061345
2 _007_:1 _015_:1 0.004628
3 _007_:1 _024_:1 0.004628
4 _007_:1 _037_:1 0.004628
5 _007_:1 _040_:1 0.001009
6 _007_:1 _052_:1 0.004628
7 _007_:1 c1_r 0.004628
8 _007_:1 c2_r 0.004628
9 _007_:1 c3_r 0.004628
10 _007_:1 c4_r 0.009255
11 _007_:1 c5_r 0.004628
12 _007_:1 c6_r 0.004628
13 _007_:1 c7_r 0.004628
14 _007_:1 c8_r 0.004628
15 _007_:1 c9_r 0.004628
16 _007_:1 clk 0.004628
17 _007_:1 clknet_0_clk:1 0.004628
18 _007_:1 cmp 0.004628
19 _007_:1 eng8:1 0.004628
20 _007_:1 ph\[14\]:1 0.004628
21 _007_:1 q1:1 0.004628
22 _007_:1 q5:1 0.009255
23 _007_:1 q6:1 0.004628
24 _007_:1 q7:1 0.004628
*RES
1 _007_:1 _007_:2 19.338400
2 _007_:1 _007_:3 19.186200
3 _007_:1 _007_:4 9.583900
4 _007_:1 _007_:5 10.488600
5 _007_:1 _007_:6 8.936500
6 _007_:1 _007_:7 9.618800
7 _007_:1 _222_:D 0.000000
8 _007_:1 _145_:ZN 0.000000
*END

*D_NET _008_ 1.697152
*CONN
*I _221_:D B
*I _146_:ZN B
*CAP
1 _008_:1 1.646471
2 _008_:1 _041_:1 0.001009
3 _008_:1 _053_:1 0.004628
4 _008_:1 clknet_2_3__leaf_clk:1 0.004628
5 _008_:1 cmp 0.004628
6 _008_:1 ph\[13\]:1 0.004628
7 _008_:1 ph[15] 0.007195
8 _008_:1 q5:1 0.000826
9 _008_:1 q7:1 0.004628
10 _008_:1 start 0.018511
*RES
1 _008_:1 _008_:2 19.324700
2 _008_:1 _008_:3 12.318500
3 _008_:1 _008_:4 1.017900
4 _008_:1 _008_:5 4.731100
5 _008_:1 _008_:6 11.768300
6 _008_:1 _008_:7 15.572000
7 _008_:1 _221_:D 0.000000
8 _008_:1 _146_:ZN 0.000000
*END

*D_NET _009_\[0\] 1.885132
*CONN
*I _230_:D B
*I _170_:Z B
*CAP
1 _009_\[0\]:1 1.875876
2 _009_\[0\]:1 clknet_2_2__leaf_clk:1 0.004628
3 _009_\[0\]:1 sel_in_n 0.004628
*RES
1 _009_\[0\]:1 _009_\[0\]:2 14.919900
2 _009_\[0\]:1 _009_\[0\]:3 18.003600
3 _009_\[0\]:1 _009_\[0\]:4 14.747700
4 _009_\[0\]:1 _009_\[0\]:5 17.905300
5 _009_\[0\]:1 _230_:D 0.000000
6 _009_\[0\]:1 _170_:Z 0.000000
*END

*D_NET _009_\[10\] 2.285796
*CONN
*I _240_:D B
*I _156_:ZN B
*CAP
1 _009_\[10\]:1 2.275437
2 _009_\[10\]:1 _025_:1 0.000301
3 _009_\[10\]:1 clknet_2_1__leaf_clk:1 0.004628
4 _009_\[10\]:1 start 0.005430
*RES
1 _009_\[10\]:1 _009_\[10\]:2 14.827200
2 _009_\[10\]:1 _009_\[10\]:3 14.724300
3 _009_\[10\]:1 _009_\[10\]:4 18.816900
4 _009_\[10\]:1 _009_\[10\]:5 9.112000
5 _009_\[10\]:1 _009_\[10\]:6 9.927700
6 _009_\[10\]:1 _240_:D 0.000000
7 _009_\[10\]:1 _156_:ZN 0.000000
*END

*D_NET _009_\[11\] 1.734649
*CONN
*I _241_:D B
*I _154_:ZN B
*CAP
1 _009_\[11\]:1 1.724687
2 _009_\[11\]:1 _047_:1 0.000021
3 _009_\[11\]:1 clknet_2_0__leaf_clk:1 0.009917
4 _009_\[11\]:1 start 0.000024
*RES
1 _009_\[11\]:1 _009_\[11\]:2 19.264000
2 _009_\[11\]:1 _009_\[11\]:3 13.036400
3 _009_\[11\]:1 _009_\[11\]:4 15.849500
4 _009_\[11\]:1 _009_\[11\]:5 7.802500
5 _009_\[11\]:1 _009_\[11\]:6 9.027900
6 _009_\[11\]:1 _241_:D 0.000000
7 _009_\[11\]:1 _154_:ZN 0.000000
*END

*D_NET _009_\[12\] 1.391679
*CONN
*I _242_:D B
*I _152_:ZN B
*CAP
1 _009_\[12\]:1 1.371530
2 _009_\[12\]:1 _017_:1 0.001195
3 _009_\[12\]:1 _046_:1 0.000301
4 _009_\[12\]:1 _048_:1 0.018511
5 _009_\[12\]:1 start 0.000142
*RES
1 _009_\[12\]:1 _009_\[12\]:2 20.235500
2 _009_\[12\]:1 _009_\[12\]:3 20.907700
3 _009_\[12\]:1 _009_\[12\]:4 9.936100
4 _009_\[12\]:1 _009_\[12\]:5 4.700300
5 _009_\[12\]:1 _009_\[12\]:6 7.595700
6 _009_\[12\]:1 _242_:D 0.000000
7 _009_\[12\]:1 _152_:ZN 0.000000
*END

*D_NET _009_\[13\] 1.635764
*CONN
*I _243_:D B
*I _151_:ZN B
*CAP
1 _009_\[13\]:1 1.597135
2 _009_\[13\]:1 _049_:1 0.004628
3 _009_\[13\]:1 _060_:1 0.000301
4 _009_\[13\]:1 cmp 0.004628
5 _009_\[13\]:1 ph\[12\]:1 0.004032
6 _009_\[13\]:1 q1:1 0.004628
7 _009_\[13\]:1 q4:1 0.004628
8 _009_\[13\]:1 start 0.015784
*RES
1 _009_\[13\]:1 _009_\[13\]:2 6.155400
2 _009_\[13\]:1 _009_\[13\]:3 18.980600
3 _009_\[13\]:1 _009_\[13\]:4 13.025900
4 _009_\[13\]:1 _009_\[13\]:5 13.183700
5 _009_\[13\]:1 _009_\[13\]:6 13.084800
6 _009_\[13\]:1 _243_:D 0.000000
7 _009_\[13\]:1 _151_:ZN 0.000000
*END

*D_NET _009_\[14\] 1.464843
*CONN
*I _244_:D B
*I _149_:ZN B
*CAP
1 _009_\[14\]:1 1.452102
2 _009_\[14\]:1 clknet_2_1__leaf_clk:1 0.008113
3 _009_\[14\]:1 q1:1 0.004628
*RES
1 _009_\[14\]:1 _009_\[14\]:2 18.925300
2 _009_\[14\]:1 _009_\[14\]:3 4.509900
3 _009_\[14\]:1 _009_\[14\]:4 12.594600
4 _009_\[14\]:1 _009_\[14\]:5 15.174100
5 _009_\[14\]:1 _009_\[14\]:6 12.531800
6 _009_\[14\]:1 _244_:D 0.000000
7 _009_\[14\]:1 _149_:ZN 0.000000
*END

*D_NET _009_\[15\] 1.632695
*CONN
*I _245_:D B
*I _148_:ZN B
*CAP
1 _009_\[15\]:1 1.606947
2 _009_\[15\]:1 _049_:1 0.004628
3 _009_\[15\]:1 _054_:1 0.011864
4 _009_\[15\]:1 ph\[13\]:1 0.004628
5 _009_\[15\]:1 start 0.004628
*RES
1 _009_\[15\]:1 _009_\[15\]:2 15.179900
2 _009_\[15\]:1 _009_\[15\]:3 19.025900
3 _009_\[15\]:1 _009_\[15\]:4 12.073000
4 _009_\[15\]:1 _009_\[15\]:5 11.691900
5 _009_\[15\]:1 _009_\[15\]:6 6.485400
6 _009_\[15\]:1 _245_:D 0.000000
7 _009_\[15\]:1 _148_:ZN 0.000000
*END

*D_NET _009_\[1\] 2.808241
*CONN
*I _231_:D B
*I _169_:ZN B
*CAP
1 _009_\[1\]:1 2.729946
2 _009_\[1\]:1 _009_\[2\]:1 0.011003
3 _009_\[1\]:1 _022_:1 0.004628
4 _009_\[1\]:1 _026_:1 0.004628
5 _009_\[1\]:1 _033_:1 0.009255
6 _009_\[1\]:1 _034_:1 0.005088
7 _009_\[1\]:1 _061_:1 0.004929
8 _009_\[1\]:1 ph\[0\]:1 0.004628
9 _009_\[1\]:1 ph\[5\]:1 0.004628
10 _009_\[1\]:1 q8:1 0.008541
11 _009_\[1\]:1 q9:1 0.004628
12 _009_\[1\]:1 samp_tp_n 0.004628
13 _009_\[1\]:1 sel_in_n 0.004628
14 _009_\[1\]:1 start 0.007083
*RES
1 _009_\[1\]:1 _009_\[1\]:2 9.521300
2 _009_\[1\]:1 _009_\[1\]:3 16.206800
3 _009_\[1\]:1 _009_\[1\]:4 18.641900
4 _009_\[1\]:1 _009_\[1\]:5 12.865800
5 _009_\[1\]:1 _009_\[1\]:6 12.495600
6 _009_\[1\]:1 _231_:D 0.000000
7 _009_\[1\]:1 _169_:ZN 0.000000
*END

*D_NET _009_\[2\] 3.151635
*CONN
*I _232_:D B
*I _168_:ZN B
*CAP
1 _009_\[2\]:1 3.088392
2 _009_\[2\]:1 _009_\[5\]:1 0.004628
3 _009_\[2\]:1 _022_:1 0.005836
4 _009_\[2\]:1 _053_:1 0.009255
5 _009_\[2\]:1 clknet_2_2__leaf_clk:1 0.012124
6 _009_\[2\]:1 clknet_2_3__leaf_clk:1 0.005823
7 _009_\[2\]:1 cmp 0.004628
8 _009_\[2\]:1 ph\[0\]:1 0.000177
9 _009_\[2\]:1 ph\[4\]:1 0.004628
10 _009_\[2\]:1 ph\[5\]:1 0.005637
11 _009_\[2\]:1 q8:1 0.004628
12 _009_\[2\]:1 q9:1 0.004628
13 _009_\[2\]:1 start 0.001251
*RES
1 _009_\[2\]:1 _009_\[2\]:2 10.073200
2 _009_\[2\]:1 _009_\[2\]:3 18.955900
3 _009_\[2\]:1 _009_\[2\]:4 16.701800
4 _009_\[2\]:1 _009_\[2\]:5 12.947900
5 _009_\[2\]:1 _009_\[2\]:6 12.671600
6 _009_\[2\]:1 _232_:D 0.000000
7 _009_\[2\]:1 _168_:ZN 0.000000
*END

*D_NET _009_\[3\] 3.030750
*CONN
*I _233_:D B
*I _166_:ZN B
*CAP
1 _009_\[3\]:1 2.998354
2 _009_\[3\]:1 _009_\[4\]:1 0.004628
3 _009_\[3\]:1 _009_\[5\]:1 0.004628
4 _009_\[3\]:1 _063_:1 0.004628
5 _009_\[3\]:1 ph\[4\]:1 0.004628
6 _009_\[3\]:1 ph\[5\]:1 0.004628
7 _009_\[3\]:1 q8:1 0.004628
8 _009_\[3\]:1 q9:1 0.004628
*RES
1 _009_\[3\]:1 _009_\[3\]:2 18.698200
2 _009_\[3\]:1 _009_\[3\]:3 10.302500
3 _009_\[3\]:1 _009_\[3\]:4 16.751100
4 _009_\[3\]:1 _009_\[3\]:5 12.598000
5 _009_\[3\]:1 _009_\[3\]:6 12.587100
6 _009_\[3\]:1 _233_:D 0.000000
7 _009_\[3\]:1 _166_:ZN 0.000000
*END

*D_NET _009_\[4\] 1.925058
*CONN
*I _234_:D B
*I _165_:ZN B
*CAP
1 _009_\[4\]:1 1.905885
2 _009_\[4\]:1 _035_:1 0.005289
3 _009_\[4\]:1 ph\[2\]:1 0.004628
4 _009_\[4\]:1 ph\[3\]:1 0.004628
5 _009_\[4\]:1 q9:1 0.004628
*RES
1 _009_\[4\]:1 _009_\[4\]:2 17.774600
2 _009_\[4\]:1 _009_\[4\]:3 10.509000
3 _009_\[4\]:1 _009_\[4\]:4 14.628200
4 _009_\[4\]:1 _009_\[4\]:5 10.223000
5 _009_\[4\]:1 _009_\[4\]:6 12.737700
6 _009_\[4\]:1 _234_:D 0.000000
7 _009_\[4\]:1 _165_:ZN 0.000000
*END

*D_NET _009_\[5\] 1.761955
*CONN
*I _235_:D B
*I _164_:ZN B
*CAP
1 _009_\[5\]:1 1.747410
2 _009_\[5\]:1 _053_:1 0.009917
3 _009_\[5\]:1 clknet_2_3__leaf_clk:1 0.004628
*RES
1 _009_\[5\]:1 _009_\[5\]:2 15.611900
2 _009_\[5\]:1 _009_\[5\]:3 10.193800
3 _009_\[5\]:1 _009_\[5\]:4 16.520200
4 _009_\[5\]:1 _009_\[5\]:5 13.051200
5 _009_\[5\]:1 _009_\[5\]:6 9.775400
6 _009_\[5\]:1 _235_:D 0.000000
7 _009_\[5\]:1 _164_:ZN 0.000000
*END

*D_NET _009_\[6\] 1.353044
*CONN
*I _236_:D B
*I _162_:ZN B
*CAP
1 _009_\[6\]:1 1.329906
2 _009_\[6\]:1 _050_:1 0.004628
3 _009_\[6\]:1 _052_:1 0.009255
4 _009_\[6\]:1 start 0.009255
*RES
1 _009_\[6\]:1 _009_\[6\]:2 20.372400
2 _009_\[6\]:1 _009_\[6\]:3 21.621000
3 _009_\[6\]:1 _009_\[6\]:4 8.227800
4 _009_\[6\]:1 _009_\[6\]:5 7.978500
5 _009_\[6\]:1 _009_\[6\]:6 4.961100
6 _009_\[6\]:1 _236_:D 0.000000
7 _009_\[6\]:1 _162_:ZN 0.000000
*END

*D_NET _009_\[7\] 2.000911
*CONN
*I _237_:D B
*I _161_:ZN B
*CAP
1 _009_\[7\]:1 1.949904
2 _009_\[7\]:1 _051_:1 0.007951
3 _009_\[7\]:1 clknet_2_2__leaf_clk:1 0.004628
4 _009_\[7\]:1 eng6:1 0.015288
5 _009_\[7\]:1 q8:1 0.004628
6 _009_\[7\]:1 q9:1 0.004628
7 _009_\[7\]:1 samp_tp_n 0.004628
8 _009_\[7\]:1 sel_in_n 0.004628
9 _009_\[7\]:1 start 0.004628
*RES
1 _009_\[7\]:1 _009_\[7\]:2 7.728500
2 _009_\[7\]:1 _009_\[7\]:3 14.578400
3 _009_\[7\]:1 _009_\[7\]:4 18.415800
4 _009_\[7\]:1 _009_\[7\]:5 12.938100
5 _009_\[7\]:1 _009_\[7\]:6 12.415800
6 _009_\[7\]:1 _237_:D 0.000000
7 _009_\[7\]:1 _161_:ZN 0.000000
*END

*D_NET _009_\[8\] 1.906308
*CONN
*I _238_:D B
*I _159_:ZN B
*CAP
1 _009_\[8\]:1 1.877879
2 _009_\[8\]:1 _049_:1 0.004628
3 _009_\[8\]:1 _050_:1 0.005289
4 _009_\[8\]:1 _053_:1 0.004628
5 _009_\[8\]:1 cmp 0.004628
6 _009_\[8\]:1 q5:1 0.004628
7 _009_\[8\]:1 q7:1 0.004628
*RES
1 _009_\[8\]:1 _009_\[8\]:2 14.395000
2 _009_\[8\]:1 _009_\[8\]:3 18.589300
3 _009_\[8\]:1 _009_\[8\]:4 14.123300
4 _009_\[8\]:1 _009_\[8\]:5 9.405900
5 _009_\[8\]:1 _009_\[8\]:6 9.170300
6 _009_\[8\]:1 _238_:D 0.000000
7 _009_\[8\]:1 _159_:ZN 0.000000
*END

*D_NET _009_\[9\] 1.986733
*CONN
*I _239_:D B
*I _157_:ZN B
*CAP
1 _009_\[9\]:1 1.981781
2 _009_\[9\]:1 _025_:1 0.000301
3 _009_\[9\]:1 start 0.004651
*RES
1 _009_\[9\]:1 _009_\[9\]:2 19.359400
2 _009_\[9\]:1 _009_\[9\]:3 15.813900
3 _009_\[9\]:1 _009_\[9\]:4 13.545500
4 _009_\[9\]:1 _009_\[9\]:5 7.828600
5 _009_\[9\]:1 _009_\[9\]:6 9.567400
6 _009_\[9\]:1 _239_:D 0.000000
7 _009_\[9\]:1 _157_:ZN 0.000000
*END

*D_NET _010_ 1.598046
*CONN
*I _219_:D B
*I _171_:Z B
*CAP
1 _010_:1 1.578413
2 _010_:1 _049_:1 0.004628
3 _010_:1 clknet_2_1__leaf_clk:1 0.005749
4 _010_:1 ph\[13\]:1 0.004628
5 _010_:1 ph\[14\]:1 0.004628
*RES
1 _010_:1 _010_:2 20.599300
2 _010_:1 _010_:3 11.506100
3 _010_:1 _010_:4 19.849600
4 _010_:1 _010_:5 12.254200
5 _010_:1 _219_:D 0.000000
6 _010_:1 _171_:Z 0.000000
*END

*D_NET _011_ 2.153883
*CONN
*I _220_:D B
*I _172_:Z B
*CAP
1 _011_:1 2.085664
2 _011_:1 _040_:1 0.013883
3 _011_:1 _049_:1 0.004628
4 _011_:1 c3_r 0.004628
5 _011_:1 c4_r 0.004628
6 _011_:1 c8_r 0.001033
7 _011_:1 clknet_0_clk:1 0.004628
8 _011_:1 clknet_2_1__leaf_clk:1 0.009255
9 _011_:1 cmp 0.004628
10 _011_:1 ph\[13\]:1 0.004628
11 _011_:1 ph\[14\]:1 0.011652
12 _011_:1 start 0.004628
*RES
1 _011_:1 _011_:2 14.306100
2 _011_:1 _011_:3 18.973900
3 _011_:1 _011_:4 18.562500
4 _011_:1 _011_:5 14.723400
5 _011_:1 _220_:D 0.000000
6 _011_:1 _172_:Z 0.000000
*END

*D_NET _012_ 1.455528
*CONN
*I _210_:D B
*I _174_:ZN B
*CAP
1 _012_:1 1.434138
2 _012_:1 _055_:1 0.000673
3 _012_:1 clknet_2_0__leaf_clk:1 0.002568
4 _012_:1 cmp 0.004628
5 _012_:1 ph\[13\]:1 0.007685
6 _012_:1 q1:1 0.005836
*RES
1 _012_:1 _012_:2 10.043800
2 _012_:1 _012_:3 18.306300
3 _012_:1 _012_:4 12.241200
4 _012_:1 _012_:5 13.380800
5 _012_:1 _012_:6 7.331800
6 _012_:1 _012_:7 2.508200
7 _012_:1 _210_:D 0.000000
8 _012_:1 _174_:ZN 0.000000
*END

*D_NET _013_ 2.135071
*CONN
*I _211_:D B
*I _175_:Z B
*CAP
1 _013_:1 2.087670
2 _013_:1 _049_:1 0.004628
3 _013_:1 clknet_0_clk:1 0.004628
4 _013_:1 clknet_2_1__leaf_clk:1 0.015005
5 _013_:1 cmp 0.004628
6 _013_:1 ph\[13\]:1 0.004628
7 _013_:1 q0:1 0.004628
8 _013_:1 q4:1 0.004628
9 _013_:1 start 0.004628
*RES
1 _013_:1 _013_:2 18.973900
2 _013_:1 _013_:3 14.306100
3 _013_:1 _013_:4 18.562500
4 _013_:1 _013_:5 14.723400
5 _013_:1 _211_:D 0.000000
6 _013_:1 _175_:Z 0.000000
*END

*D_NET _014_ 1.571661
*CONN
*I _206_:D B
*I _177_:ZN B
*CAP
1 _014_:1 1.528611
2 _014_:1 cmp 0.000738
3 _014_:1 ph\[7\]:1 0.009917
4 _014_:1 q6:1 0.004628
5 _014_:1 q8:1 0.004628
6 _014_:1 q9:1 0.004628
7 _014_:1 start 0.018511
*RES
1 _014_:1 _014_:2 12.773600
2 _014_:1 _014_:3 18.288500
3 _014_:1 _014_:4 11.322000
4 _014_:1 _014_:5 11.144000
5 _014_:1 _014_:6 4.571000
6 _014_:1 _014_:7 6.202900
7 _014_:1 _206_:D 0.000000
8 _014_:1 _177_:ZN 0.000000
*END

*D_NET _015_ 1.947819
*CONN
*I _212_:D B
*I _178_:Z B
*CAP
1 _015_:1 1.883794
2 _015_:1 _040_:1 0.004628
3 _015_:1 clknet_0_clk:1 0.004628
4 _015_:1 clknet_2_3__leaf_clk:1 0.002668
5 _015_:1 cmp 0.004628
6 _015_:1 eng5:1 0.038217
7 _015_:1 ph\[14\]:1 0.004628
8 _015_:1 start 0.004628
*RES
1 _015_:1 _015_:2 13.492400
2 _015_:1 _015_:3 19.360400
3 _015_:1 _015_:4 13.912700
4 _015_:1 _015_:5 18.916900
5 _015_:1 _212_:D 0.000000
6 _015_:1 _178_:Z 0.000000
*END

*D_NET _016_ 1.568773
*CONN
*I _213_:D B
*I _179_:Z B
*CAP
1 _016_:1 1.536320
2 _016_:1 _040_:1 0.013883
3 _016_:1 c3_r 0.009255
4 _016_:1 c4_r 0.004628
5 _016_:1 clknet_0_clk:1 0.004628
6 _016_:1 clknet_2_0__leaf_clk:1 0.000059
*RES
1 _016_:1 _016_:2 11.611800
2 _016_:1 _016_:3 20.397200
3 _016_:1 _016_:4 19.601200
4 _016_:1 _016_:5 12.435000
5 _016_:1 _213_:D 0.000000
6 _016_:1 _179_:Z 0.000000
*END

*D_NET _017_ 2.155717
*CONN
*I _202_:D B
*I _181_:ZN B
*CAP
1 _017_:1 2.126941
2 _017_:1 _048_:1 0.004628
3 _017_:1 clknet_2_1__leaf_clk:1 0.004628
4 _017_:1 cmp 0.004628
5 _017_:1 ph\[11\]:1 0.001009
6 _017_:1 ph\[9\]:1 0.004628
7 _017_:1 start 0.009255
*RES
1 _017_:1 _017_:2 14.803000
2 _017_:1 _017_:3 18.498000
3 _017_:1 _017_:4 10.375200
4 _017_:1 _017_:5 11.492500
5 _017_:1 _017_:6 5.719500
6 _017_:1 _017_:7 6.087200
7 _017_:1 _202_:D 0.000000
8 _017_:1 _181_:ZN 0.000000
*END

*D_NET _018_ 1.653793
*CONN
*I _207_:D B
*I _183_:ZN B
*CAP
1 _018_:1 1.653793
*RES
1 _018_:1 _018_:2 18.183600
2 _018_:1 _018_:3 13.029600
3 _018_:1 _018_:4 4.879700
4 _018_:1 _018_:5 7.213800
5 _018_:1 _018_:6 10.638100
6 _018_:1 _018_:7 10.897400
7 _018_:1 _207_:D 0.000000
8 _018_:1 _183_:ZN 0.000000
*END

*D_NET _019_ 1.271484
*CONN
*I _205_:D B
*I _185_:ZN B
*CAP
1 _019_:1 1.262044
2 _019_:1 clknet_2_3__leaf_clk:1 0.004628
3 _019_:1 ph\[8\]:1 0.000184
4 _019_:1 q5:1 0.004628
*RES
1 _019_:1 _019_:2 9.226200
2 _019_:1 _019_:3 18.149400
3 _019_:1 _019_:4 13.149300
4 _019_:1 _019_:5 12.662900
5 _019_:1 _019_:6 1.537500
6 _019_:1 _019_:7 8.316800
7 _019_:1 _205_:D 0.000000
8 _019_:1 _185_:ZN 0.000000
*END

*D_NET _020_ 1.549319
*CONN
*I _201_:D B
*I _187_:ZN B
*CAP
1 _020_:1 1.535435
2 _020_:1 _049_:1 0.004628
3 _020_:1 clknet_2_1__leaf_clk:1 0.004628
4 _020_:1 q4:1 0.004628
*RES
1 _020_:1 _020_:2 18.343100
2 _020_:1 _020_:3 12.789500
3 _020_:1 _020_:4 4.559600
4 _020_:1 _020_:5 5.847100
5 _020_:1 _020_:6 11.546200
6 _020_:1 _020_:7 11.216600
7 _020_:1 _201_:D 0.000000
8 _020_:1 _187_:ZN 0.000000
*END

*D_NET _021_ 2.089597
*CONN
*I _214_:D B
*I _188_:Z B
*CAP
1 _021_:1 2.049144
2 _021_:1 _049_:1 0.004628
3 _021_:1 c4_r 0.001033
4 _021_:1 clknet_2_1__leaf_clk:1 0.004628
5 _021_:1 cmp 0.004628
6 _021_:1 ph\[13\]:1 0.004628
7 _021_:1 ph\[14\]:1 0.011652
8 _021_:1 q1:1 0.004628
9 _021_:1 start 0.004628
*RES
1 _021_:1 _021_:2 13.946000
2 _021_:1 _021_:3 19.289600
3 _021_:1 _021_:4 14.248700
4 _021_:1 _021_:5 18.934200
5 _021_:1 _214_:D 0.000000
6 _021_:1 _188_:Z 0.000000
*END

*D_NET _022_ 1.582181
*CONN
*I _208_:D B
*I _190_:ZN B
*CAP
1 _022_:1 1.570357
2 _022_:1 _033_:1 0.004628
3 _022_:1 clknet_2_3__leaf_clk:1 0.004628
4 _022_:1 start 0.002568
*RES
1 _022_:1 _022_:2 13.073300
2 _022_:1 _022_:3 18.417800
3 _022_:1 _022_:4 12.059900
4 _022_:1 _022_:5 11.297900
5 _022_:1 _022_:6 4.806200
6 _022_:1 _022_:7 4.793700
7 _022_:1 _208_:D 0.000000
8 _022_:1 _190_:ZN 0.000000
*END

*D_NET _023_ 1.668800
*CONN
*I _215_:D B
*I _191_:Z B
*CAP
1 _023_:1 1.659323
2 _023_:1 cmp 0.004628
3 _023_:1 ph\[14\]:1 0.000221
4 _023_:1 start 0.004628
*RES
1 _023_:1 _023_:2 20.703300
2 _023_:1 _023_:3 11.598700
3 _023_:1 _023_:4 12.388300
4 _023_:1 _023_:5 19.928200
5 _023_:1 _215_:D 0.000000
6 _023_:1 _191_:Z 0.000000
*END

*D_NET _024_ 2.109304
*CONN
*I _216_:D B
*I _192_:Z B
*CAP
1 _024_:1 2.030282
2 _024_:1 _040_:1 0.004628
3 _024_:1 c2_r 0.001033
4 _024_:1 c3_r 0.004628
5 _024_:1 c4_r 0.004628
6 _024_:1 c9_r 0.010802
7 _024_:1 clk 0.004628
8 _024_:1 clknet_0_clk:1 0.004628
9 _024_:1 cmp 0.004628
10 _024_:1 eng8:1 0.004628
11 _024_:1 ph\[14\]:1 0.011652
12 _024_:1 q1:1 0.004628
13 _024_:1 q8:1 0.009255
14 _024_:1 sel_hi_n_16p 0.004628
15 _024_:1 start 0.004628
*RES
1 _024_:1 _024_:2 14.252900
2 _024_:1 _024_:3 18.929600
3 _024_:1 _024_:4 14.663300
4 _024_:1 _024_:5 18.524000
5 _024_:1 _216_:D 0.000000
6 _024_:1 _192_:Z 0.000000
*END

*D_NET _025_ 1.916696
*CONN
*I _204_:D B
*I _194_:ZN B
*CAP
1 _025_:1 1.882577
2 _025_:1 _048_:1 0.008541
3 _025_:1 _049_:1 0.008541
4 _025_:1 clknet_2_1__leaf_clk:1 0.004628
5 _025_:1 cmp 0.002492
6 _025_:1 ph\[9\]:1 0.005289
7 _025_:1 start 0.004628
*RES
1 _025_:1 _025_:2 18.051900
2 _025_:1 _025_:3 14.398100
3 _025_:1 _025_:4 5.893700
4 _025_:1 _025_:5 6.771600
5 _025_:1 _025_:6 10.371500
6 _025_:1 _025_:7 10.435200
7 _025_:1 _204_:D 0.000000
8 _025_:1 _194_:ZN 0.000000
*END

*D_NET _026_ 1.811705
*CONN
*I _209_:D B
*I _196_:ZN B
*CAP
1 _026_:1 1.800027
2 _026_:1 _061_:1 0.000148
3 _026_:1 clknet_2_3__leaf_clk:1 0.004628
4 _026_:1 ph\[4\]:1 0.001170
5 _026_:1 ph\[5\]:1 0.005289
6 _026_:1 q8:1 0.000443
*RES
1 _026_:1 _026_:2 14.259800
2 _026_:1 _026_:3 18.042000
3 _026_:1 _026_:4 10.547700
4 _026_:1 _026_:5 10.453900
5 _026_:1 _026_:6 5.828400
6 _026_:1 _026_:7 6.397400
7 _026_:1 _209_:D 0.000000
8 _026_:1 _196_:ZN 0.000000
*END

*D_NET _027_ 1.362066
*CONN
*I _217_:D B
*I _197_:Z B
*CAP
1 _027_:1 1.351264
2 _027_:1 clknet_0_clk:1 0.009255
3 _027_:1 q1:1 0.001547
*RES
1 _027_:1 _027_:2 24.869100
2 _027_:1 _027_:3 6.807900
3 _027_:1 _027_:4 8.041900
4 _027_:1 _027_:5 23.425800
5 _027_:1 _217_:D 0.000000
6 _027_:1 _197_:Z 0.000000
*END

*D_NET _028_ 1.353465
*CONN
*I _218_:D B
*I _198_:Z B
*CAP
1 _028_:1 1.352266
2 _028_:1 clknet_2_3__leaf_clk:1 0.001051
3 _028_:1 q7:1 0.000148
*RES
1 _028_:1 _028_:2 8.616200
2 _028_:1 _028_:3 22.897300
3 _028_:1 _028_:4 21.363700
4 _028_:1 _028_:5 10.267500
5 _028_:1 _218_:D 0.000000
6 _028_:1 _198_:Z 0.000000
*END

*D_NET _029_ 1.267092
*CONN
*I _203_:D B
*I _200_:ZN B
*CAP
1 _029_:1 1.262464
2 _029_:1 clknet_2_0__leaf_clk:1 0.004628
*RES
1 _029_:1 _029_:2 9.226200
2 _029_:1 _029_:3 18.149400
3 _029_:1 _029_:4 13.149300
4 _029_:1 _029_:5 12.662900
5 _029_:1 _029_:6 1.537500
6 _029_:1 _029_:7 8.316800
7 _029_:1 _203_:D 0.000000
8 _029_:1 _200_:ZN 0.000000
*END

*D_NET _030_ 5.249673
*CONN
*I _139_:A1 B
*I _091_:A1 B
*I _090_:A1 B
*I _065_:ZN B
*CAP
1 _030_:1 5.123995
2 _030_:1 _031_:1 0.018511
3 _030_:1 _036_:1 0.000779
4 _030_:1 _042_:1 0.018511
5 _030_:1 _043_:1 0.004628
6 _030_:1 _044_:1 0.004628
7 _030_:1 c0_r 0.009255
8 _030_:1 eng2:1 0.009255
9 _030_:1 eng3:1 0.004628
10 _030_:1 eng4:1 0.004628
11 _030_:1 q2:1 0.009255
12 _030_:1 q3:1 0.004628
13 _030_:1 q4:1 0.004628
14 _030_:1 sel_hi_n_2n 0.022126
15 _030_:1 sel_hi_n_8n 0.004628
16 _030_:1 sel_lo_n_4p 0.000962
17 _030_:1 sel_lo_n_8p 0.004628
*RES
1 _030_:1 _030_:2 24.524200
2 _030_:1 _030_:3 34.269800
3 _030_:1 _030_:4 22.461100
4 _030_:1 _030_:5 8.688000
5 _030_:1 _030_:6 10.617500
6 _030_:1 _030_:7 26.924500
7 _030_:1 _030_:8 33.827800
8 _030_:1 _030_:9 24.890100
9 _030_:1 _139_:A1 0.000000
10 _030_:1 _091_:A1 0.000000
11 _030_:1 _090_:A1 0.000000
12 _030_:1 _065_:ZN 0.000000
*END

*D_NET _031_ 14.077095
*CONN
*I _163_:A1 B
*I _147_:A1 B
*I _131_:A1 B
*I _124_:A1 B
*I _118_:A1 B
*I _112_:A1 B
*I _106_:A1 B
*I _100_:A1 B
*I _091_:A2 B
*I _066_:ZN B
*CAP
1 _031_:1 13.485417
2 _031_:1 _037_:1 0.004628
3 _031_:1 _038_:1 0.000519
4 _031_:1 _039_:1 0.004628
5 _031_:1 _044_:1 0.009255
6 _031_:1 c0_r 0.004628
7 _031_:1 c1_r 0.004628
8 _031_:1 c2_r 0.004628
9 _031_:1 c3_r 0.004628
10 _031_:1 c4_r 0.004628
11 _031_:1 c5_r 0.004628
12 _031_:1 c6_r 0.004628
13 _031_:1 c7_r 0.004628
14 _031_:1 c8_r 0.004628
15 _031_:1 c9_r 0.004628
16 _031_:1 clk 0.004628
17 _031_:1 cmp 0.004628
18 _031_:1 eng1:1 0.004628
19 _031_:1 eng2:1 0.004628
20 _031_:1 eng3:1 0.009255
21 _031_:1 eng4:1 0.013883
22 _031_:1 eng6:1 0.032394
23 _031_:1 eng7:1 0.009255
24 _031_:1 eng8:1 0.004628
25 _031_:1 eng9:1 0.004628
26 _031_:1 mode 0.048042
27 _031_:1 ph[15] 0.013883
28 _031_:1 q1:1 0.004628
29 _031_:1 q2:1 0.004628
30 _031_:1 q3:1 0.000862
31 _031_:1 q4:1 0.009255
32 _031_:1 q5:1 0.005062
33 _031_:1 q6:1 0.009255
34 _031_:1 q8:1 0.000390
35 _031_:1 rel_n_16n 0.004628
36 _031_:1 rel_n_1p 0.004628
37 _031_:1 rel_n_256n 0.004628
38 _031_:1 rel_n_256p 0.004628
39 _031_:1 rel_n_2n 0.004628
40 _031_:1 rel_n_2p 0.004628
41 _031_:1 rel_n_32n 0.004628
42 _031_:1 rel_n_4n 0.004628
43 _031_:1 rel_n_4p 0.004628
44 _031_:1 rel_n_64n 0.004628
45 _031_:1 rel_n_64p 0.004628
46 _031_:1 rel_n_8p 0.004628
47 _031_:1 samp_tp_n 0.009255
48 _031_:1 sel_hi_n_128n 0.008512
49 _031_:1 sel_hi_n_128p 0.004628
50 _031_:1 sel_hi_n_16n 0.013139
51 _031_:1 sel_hi_n_16p 0.004628
52 _031_:1 sel_hi_n_1n 0.013924
53 _031_:1 sel_hi_n_1p 0.004628
54 _031_:1 sel_hi_n_256n 0.011239
55 _031_:1 sel_hi_n_256p 0.004628
56 _031_:1 sel_hi_n_2n 0.013570
57 _031_:1 sel_hi_n_2p 0.004628
58 _031_:1 sel_hi_n_32p 0.009255
59 _031_:1 sel_hi_n_4n 0.004628
60 _031_:1 sel_hi_n_4p 0.004628
61 _031_:1 sel_hi_n_64n 0.027023
62 _031_:1 sel_hi_n_64p 0.009255
63 _031_:1 sel_hi_n_8n 0.009754
64 _031_:1 sel_hi_n_8p 0.004628
65 _031_:1 sel_in_n 0.032394
66 _031_:1 sel_lo_n_128n 0.004628
67 _031_:1 sel_lo_n_128p 0.004628
68 _031_:1 sel_lo_n_16n 0.004628
69 _031_:1 sel_lo_n_16p 0.004628
70 _031_:1 sel_lo_n_1n 0.004628
71 _031_:1 sel_lo_n_1p 0.009255
72 _031_:1 sel_lo_n_256n 0.004628
73 _031_:1 sel_lo_n_256p 0.009255
74 _031_:1 sel_lo_n_32n 0.004628
75 _031_:1 sel_lo_n_32p 0.009255
76 _031_:1 sel_lo_n_4n 0.004628
77 _031_:1 sel_lo_n_64p 0.004628
78 _031_:1 sel_lo_n_8n 0.004628
79 _031_:1 sel_lo_n_8p 0.009255
80 _031_:1 start 0.004628
*RES
1 _031_:1 _031_:2 14.014400
2 _031_:1 _031_:3 13.166300
3 _031_:1 _031_:4 41.441700
4 _031_:1 _031_:5 30.504000
5 _031_:1 _031_:6 32.265700
6 _031_:1 _031_:7 40.863900
7 _031_:1 _031_:8 30.573500
8 _031_:1 _031_:9 12.939600
9 _031_:1 _031_:10 14.412800
10 _031_:1 _031_:11 41.093600
11 _031_:1 _031_:12 10.543800
12 _031_:1 _031_:13 9.592100
13 _031_:1 _031_:14 40.746700
14 _031_:1 _031_:15 41.287200
15 _031_:1 _031_:16 13.914000
16 _031_:1 _031_:17 14.147700
17 _031_:1 _031_:18 32.649100
18 _031_:1 _031_:19 30.474700
19 _031_:1 _031_:20 30.457000
20 _031_:1 _031_:21 41.350700
21 _031_:1 _163_:A1 0.000000
22 _031_:1 _147_:A1 0.000000
23 _031_:1 _131_:A1 0.000000
24 _031_:1 _124_:A1 0.000000
25 _031_:1 _118_:A1 0.000000
26 _031_:1 _112_:A1 0.000000
27 _031_:1 _106_:A1 0.000000
28 _031_:1 _100_:A1 0.000000
29 _031_:1 _091_:A2 0.000000
30 _031_:1 _066_:ZN 0.000000
*END

*D_NET _032_ 2.317448
*CONN
*I _166_:A1 B
*I _092_:A1 B
*I _067_:ZN B
*CAP
1 _032_:1 2.290597
2 _032_:1 ph\[0\]:1 0.004628
3 _032_:1 ph\[2\]:1 0.009999
4 _032_:1 samp_tp_n 0.002143
5 _032_:1 sel_in_n 0.009255
6 _032_:1 start 0.000826
*RES
1 _032_:1 _032_:2 9.118000
2 _032_:1 _032_:3 19.076000
3 _032_:1 _032_:4 29.163700
4 _032_:1 _032_:5 21.174700
5 _032_:1 _032_:6 26.944300
6 _032_:1 _032_:7 16.022300
7 _032_:1 _166_:A1 0.000000
8 _032_:1 _092_:A1 0.000000
9 _032_:1 _067_:ZN 0.000000
*END

*D_NET _033_ 3.272379
*CONN
*I _169_:A1 B
*I _092_:A2 B
*I _068_:ZN B
*CAP
1 _033_:1 3.238006
2 _033_:1 clknet_2_3__leaf_clk:1 0.001122
3 _033_:1 ph\[0\]:1 0.005484
4 _033_:1 q8:1 0.013883
5 _033_:1 q9:1 0.004628
6 _033_:1 sel_in_n 0.004628
7 _033_:1 start 0.004628
*RES
1 _033_:1 _033_:2 20.304500
2 _033_:1 _033_:3 15.314400
3 _033_:1 _033_:4 26.925600
4 _033_:1 _033_:5 12.365300
5 _033_:1 _033_:6 17.929300
6 _033_:1 _033_:7 32.787000
7 _033_:1 _169_:A1 0.000000
8 _033_:1 _092_:A2 0.000000
9 _033_:1 _068_:ZN 0.000000
*END

*D_NET _034_ 2.688011
*CONN
*I _168_:A1 B
*I _092_:A3 B
*I _069_:ZN B
*CAP
1 _034_:1 2.675521
2 _034_:1 ph\[0\]:1 0.004893
3 _034_:1 ph\[2\]:1 0.002143
4 _034_:1 sel_in_n 0.004628
5 _034_:1 start 0.000826
*RES
1 _034_:1 _034_:2 12.664500
2 _034_:1 _034_:3 32.030500
3 _034_:1 _034_:4 23.136800
4 _034_:1 _034_:5 26.087100
5 _034_:1 _034_:6 2.674700
6 _034_:1 _034_:7 26.580200
7 _034_:1 _168_:A1 0.000000
8 _034_:1 _092_:A3 0.000000
9 _034_:1 _069_:ZN 0.000000
*END

*D_NET _035_ 1.691651
*CONN
*I _165_:A1 B
*I _070_:ZN B
*CAP
1 _035_:1 1.686114
2 _035_:1 ph\[3\]:1 0.005537
*RES
1 _035_:1 _035_:2 12.154300
2 _035_:1 _035_:3 12.286100
3 _035_:1 _035_:4 19.208200
4 _035_:1 _035_:5 19.373200
5 _035_:1 _165_:A1 0.000000
6 _035_:1 _070_:ZN 0.000000
*END

*D_NET _036_ 4.422553
*CONN
*I _140_:A1 B
*I _100_:A3 B
*I _099_:A2 B
*I _071_:ZN B
*CAP
1 _036_:1 4.359429
2 _036_:1 _042_:1 0.014568
3 _036_:1 _043_:1 0.004628
4 _036_:1 _044_:1 0.004628
5 _036_:1 eng4:1 0.004628
6 _036_:1 ph\[13\]:1 0.009928
7 _036_:1 q2:1 0.013883
8 _036_:1 q3:1 0.009255
9 _036_:1 q4:1 0.001582
10 _036_:1 sel_lo_n_8p 0.000024
*RES
1 _036_:1 _036_:2 38.416200
2 _036_:1 _036_:3 24.175200
3 _036_:1 _036_:4 37.353200
4 _036_:1 _036_:5 19.252200
5 _036_:1 _036_:6 10.139100
6 _036_:1 _036_:7 6.427000
7 _036_:1 _036_:8 25.468800
8 _036_:1 _036_:9 21.056900
9 _036_:1 _140_:A1 0.000000
10 _036_:1 _100_:A3 0.000000
11 _036_:1 _099_:A2 0.000000
12 _036_:1 _071_:ZN 0.000000
*END

*D_NET _037_ 5.071023
*CONN
*I _141_:A1 B
*I _106_:A3 B
*I _105_:A2 B
*I _072_:ZN B
*CAP
1 _037_:1 4.937412
2 _037_:1 _040_:1 0.004628
3 _037_:1 _041_:1 0.009255
4 _037_:1 _049_:1 0.001169
5 _037_:1 c1_r 0.004628
6 _037_:1 c6_r 0.004628
7 _037_:1 clknet_0_clk:1 0.004628
8 _037_:1 clknet_2_2__leaf_clk:1 0.004628
9 _037_:1 cmp 0.004628
10 _037_:1 eng5:1 0.014792
11 _037_:1 eng9:1 0.013883
12 _037_:1 ph\[13\]:1 0.000319
13 _037_:1 q5:1 0.024000
14 _037_:1 q8:1 0.009255
15 _037_:1 q9:1 0.004628
16 _037_:1 rel_n_16n 0.000136
17 _037_:1 sel_lo_n_16p 0.000640
18 _037_:1 sel_lo_n_256p 0.004628
19 _037_:1 sel_lo_n_32p 0.013883
20 _037_:1 sel_lo_n_64p 0.009255
*RES
1 _037_:1 _037_:2 26.162000
2 _037_:1 _037_:3 36.060000
3 _037_:1 _037_:4 17.851700
4 _037_:1 _037_:5 8.923700
5 _037_:1 _037_:6 12.115700
6 _037_:1 _037_:7 29.925000
7 _037_:1 _037_:8 30.910000
8 _037_:1 _037_:9 22.831400
9 _037_:1 _141_:A1 0.000000
10 _037_:1 _106_:A3 0.000000
11 _037_:1 _105_:A2 0.000000
12 _037_:1 _072_:ZN 0.000000
*END

*D_NET _038_ 4.509178
*CONN
*I _142_:A1 B
*I _112_:A3 B
*I _111_:A2 B
*I _073_:ZN B
*CAP
1 _038_:1 4.403034
2 _038_:1 _039_:1 0.004628
3 _038_:1 _051_:1 0.000561
4 _038_:1 c6_r 0.009255
5 _038_:1 clknet_2_2__leaf_clk:1 0.005749
6 _038_:1 eng5:1 0.004628
7 _038_:1 eng6:1 0.011882
8 _038_:1 eng7:1 0.004628
9 _038_:1 ph[15] 0.004628
10 _038_:1 q6:1 0.013883
11 _038_:1 q8:1 0.004628
12 _038_:1 q9:1 0.009255
13 _038_:1 rel_n_16p 0.004628
14 _038_:1 samp_tp_n 0.004628
15 _038_:1 sel_hi_n_128n 0.004628
16 _038_:1 sel_hi_n_8n 0.004628
17 _038_:1 sel_in_n 0.004628
18 _038_:1 sel_lo_n_32p 0.009279
*RES
1 _038_:1 _038_:2 27.451700
2 _038_:1 _038_:3 20.259200
3 _038_:1 _038_:4 21.999000
4 _038_:1 _038_:5 19.280200
5 _038_:1 _038_:6 23.987300
6 _038_:1 _038_:7 17.919800
7 _038_:1 _038_:8 26.262600
8 _038_:1 _038_:9 25.190400
9 _038_:1 _142_:A1 0.000000
10 _038_:1 _112_:A3 0.000000
11 _038_:1 _111_:A2 0.000000
12 _038_:1 _073_:ZN 0.000000
*END

*D_NET _039_ 3.882354
*CONN
*I _144_:A1 B
*I _118_:A3 B
*I _117_:A2 B
*I _074_:ZN B
*CAP
1 _039_:1 3.777260
2 _039_:1 _051_:1 0.004628
3 _039_:1 c6_r 0.004628
4 _039_:1 eng5:1 0.004628
5 _039_:1 eng7:1 0.009255
6 _039_:1 ph[15] 0.004628
7 _039_:1 q6:1 0.004628
8 _039_:1 q7:1 0.026397
9 _039_:1 q9:1 0.004628
10 _039_:1 sel_hi_n_64n 0.004628
11 _039_:1 sel_in_n 0.013883
12 _039_:1 sel_lo_n_32p 0.023139
13 _039_:1 sel_lo_n_64p 0.000024
*RES
1 _039_:1 _039_:2 25.371100
2 _039_:1 _039_:3 26.036600
3 _039_:1 _039_:4 24.481700
4 _039_:1 _039_:5 14.331400
5 _039_:1 _039_:6 14.095600
6 _039_:1 _039_:7 20.332800
7 _039_:1 _039_:8 25.987900
8 _039_:1 _039_:9 28.830500
9 _039_:1 _144_:A1 0.000000
10 _039_:1 _118_:A3 0.000000
11 _039_:1 _117_:A2 0.000000
12 _039_:1 _074_:ZN 0.000000
*END

*D_NET _040_ 7.205491
*CONN
*I _145_:A1 B
*I _124_:A3 B
*I _123_:A2 B
*I _075_:ZN B
*CAP
1 _040_:1 7.030107
2 _040_:1 _041_:1 0.004628
3 _040_:1 _052_:1 0.009255
4 _040_:1 c1_r 0.004628
5 _040_:1 c2_r 0.004628
6 _040_:1 c3_r 0.004628
7 _040_:1 c4_r 0.004628
8 _040_:1 c5_r 0.004628
9 _040_:1 c6_r 0.004628
10 _040_:1 c7_r 0.004628
11 _040_:1 c8_r 0.004628
12 _040_:1 c9_r 0.004628
13 _040_:1 clk 0.004628
14 _040_:1 clknet_2_0__leaf_clk:1 0.004628
15 _040_:1 clknet_2_2__leaf_clk:1 0.004628
16 _040_:1 cmp 0.004628
17 _040_:1 eng5:1 0.009255
18 _040_:1 eng8:1 0.004628
19 _040_:1 eng9:1 0.004628
20 _040_:1 ph\[14\]:1 0.018511
21 _040_:1 q1:1 0.009255
22 _040_:1 q5:1 0.009255
23 _040_:1 q6:1 0.004628
24 _040_:1 q7:1 0.021651
25 _040_:1 q8:1 0.009556
26 _040_:1 q9:1 0.004628
27 _040_:1 sel_lo_n_128p 0.000413
28 _040_:1 sel_lo_n_32p 0.004628
29 _040_:1 sel_lo_n_64p 0.000301
*RES
1 _040_:1 _040_:2 24.418200
2 _040_:1 _040_:3 25.046000
3 _040_:1 _040_:4 24.120800
4 _040_:1 _040_:5 27.157800
5 _040_:1 _040_:6 21.277800
6 _040_:1 _040_:7 21.390800
7 _040_:1 _040_:8 25.454200
8 _040_:1 _040_:9 27.059900
9 _040_:1 _145_:A1 0.000000
10 _040_:1 _124_:A3 0.000000
11 _040_:1 _123_:A2 0.000000
12 _040_:1 _075_:ZN 0.000000
*END

*D_NET _041_ 4.952328
*CONN
*I _146_:A1 B
*I _131_:A3 B
*I _130_:A2 B
*I _076_:ZN B
*CAP
1 _041_:1 4.829721
2 _041_:1 _052_:1 0.004628
3 _041_:1 _053_:1 0.009255
4 _041_:1 c1_r 0.004628
5 _041_:1 c6_r 0.004628
6 _041_:1 c7_r 0.004628
7 _041_:1 clknet_0_clk:1 0.004628
8 _041_:1 clknet_2_2__leaf_clk:1 0.004628
9 _041_:1 cmp 0.004628
10 _041_:1 eng5:1 0.009255
11 _041_:1 eng9:1 0.004628
12 _041_:1 ph\[13\]:1 0.004716
13 _041_:1 ph[15] 0.023139
14 _041_:1 q5:1 0.009255
15 _041_:1 q6:1 0.004628
16 _041_:1 q7:1 0.004628
17 _041_:1 q8:1 0.013883
18 _041_:1 q9:1 0.000756
19 _041_:1 sel_hi_n_256n 0.004628
20 _041_:1 sel_lo_n_256p 0.001440
*RES
1 _041_:1 _041_:2 27.833600
2 _041_:1 _041_:3 26.015300
3 _041_:1 _041_:4 20.143700
4 _041_:1 _041_:5 22.287400
5 _041_:1 _041_:6 21.022900
6 _041_:1 _041_:7 26.271900
7 _041_:1 _041_:8 23.390700
8 _041_:1 _041_:9 17.732000
9 _041_:1 _146_:A1 0.000000
10 _041_:1 _131_:A3 0.000000
11 _041_:1 _130_:A2 0.000000
12 _041_:1 _076_:ZN 0.000000
*END

*D_NET _042_ 4.592458
*CONN
*I _147_:A2 B
*I _138_:A1 B
*I _137_:A1 B
*I _077_:ZN B
*CAP
1 _042_:1 4.495004
2 _042_:1 _044_:1 0.013883
3 _042_:1 eng2:1 0.004628
4 _042_:1 eng3:1 0.013883
5 _042_:1 eng4:1 0.009255
6 _042_:1 ph\[13\]:1 0.005407
7 _042_:1 q2:1 0.028782
8 _042_:1 q3:1 0.013883
9 _042_:1 sel_lo_n_2p 0.007733
*RES
1 _042_:1 _042_:2 25.658400
2 _042_:1 _042_:3 21.221000
3 _042_:1 _042_:4 37.899200
4 _042_:1 _042_:5 23.822900
5 _042_:1 _042_:6 34.854600
6 _042_:1 _042_:7 6.690600
7 _042_:1 _042_:8 10.477300
8 _042_:1 _042_:9 22.506200
9 _042_:1 _147_:A2 0.000000
10 _042_:1 _138_:A1 0.000000
11 _042_:1 _137_:A1 0.000000
12 _042_:1 _077_:ZN 0.000000
*END

*D_NET _043_ 3.316215
*CONN
*I _151_:A1 B
*I _136_:A1 B
*I _078_:ZN B
*CAP
1 _043_:1 3.275528
2 _043_:1 _046_:1 0.009255
3 _043_:1 _047_:1 0.001753
4 _043_:1 _048_:1 0.005188
5 _043_:1 clknet_2_0__leaf_clk:1 0.004628
6 _043_:1 q2:1 0.004628
7 _043_:1 q3:1 0.004628
8 _043_:1 start 0.010607
*RES
1 _043_:1 _043_:2 25.685500
2 _043_:1 _043_:3 29.189600
3 _043_:1 _043_:4 7.582600
4 _043_:1 _043_:5 7.854500
5 _043_:1 _043_:6 31.766200
6 _043_:1 _043_:7 22.563600
7 _043_:1 _151_:A1 0.000000
8 _043_:1 _136_:A1 0.000000
9 _043_:1 _078_:ZN 0.000000
*END

*D_NET _044_ 8.368025
*CONN
*I _163_:A2 B
*I _158_:A1 B
*I _136_:A2 B
*I _079_:ZN B
*CAP
1 _044_:1 8.090366
2 _044_:1 c0_r 0.023139
3 _044_:1 c2_r 0.009255
4 _044_:1 c3_r 0.004628
5 _044_:1 c4_r 0.004628
6 _044_:1 c5_r 0.004628
7 _044_:1 c8_r 0.004628
8 _044_:1 c9_r 0.004628
9 _044_:1 clk 0.004628
10 _044_:1 eng1:1 0.004628
11 _044_:1 eng3:1 0.004628
12 _044_:1 eng4:1 0.009255
13 _044_:1 eng5:1 0.004628
14 _044_:1 eng6:1 0.027766
15 _044_:1 eng7:1 0.004628
16 _044_:1 eng8:1 0.004628
17 _044_:1 eng9:1 0.009255
18 _044_:1 mode 0.009255
19 _044_:1 ph\[13\]:1 0.004628
20 _044_:1 q1:1 0.014875
21 _044_:1 q2:1 0.009255
22 _044_:1 q3:1 0.009255
23 _044_:1 q4:1 0.004628
24 _044_:1 q5:1 0.004628
25 _044_:1 q6:1 0.004628
26 _044_:1 q7:1 0.004628
27 _044_:1 sel_hi_n_128p 0.004628
28 _044_:1 sel_hi_n_16n 0.004628
29 _044_:1 sel_hi_n_16p 0.009255
30 _044_:1 sel_hi_n_256n 0.004628
31 _044_:1 sel_hi_n_256p 0.004628
32 _044_:1 sel_hi_n_32p 0.004628
33 _044_:1 sel_hi_n_4n 0.004628
34 _044_:1 sel_hi_n_64n 0.004628
35 _044_:1 sel_in_n 0.006673
36 _044_:1 sel_lo_n_128p 0.004628
37 _044_:1 sel_lo_n_16n 0.004628
38 _044_:1 sel_lo_n_1p 0.010837
39 _044_:1 sel_lo_n_256n 0.004628
40 _044_:1 sel_lo_n_8p 0.004628
41 _044_:1 start 0.004628
*RES
1 _044_:1 _044_:2 26.244000
2 _044_:1 _044_:3 25.908100
3 _044_:1 _044_:4 29.870600
4 _044_:1 _044_:5 24.449500
5 _044_:1 _044_:6 20.616700
6 _044_:1 _044_:7 20.396100
7 _044_:1 _044_:8 29.798800
8 _044_:1 _044_:9 24.405200
9 _044_:1 _163_:A2 0.000000
10 _044_:1 _158_:A1 0.000000
11 _044_:1 _136_:A2 0.000000
12 _044_:1 _079_:ZN 0.000000
*END

*D_NET _045_ 1.232931
*CONN
*I _149_:A1 B
*I _080_:ZN B
*CAP
1 _045_:1 1.208936
2 _045_:1 _049_:1 0.004628
3 _045_:1 clknet_2_1__leaf_clk:1 0.004628
4 _045_:1 ph\[13\]:1 0.010111
5 _045_:1 q4:1 0.004628
*RES
1 _045_:1 _045_:2 23.783300
2 _045_:1 _045_:3 7.075600
3 _045_:1 _045_:4 23.338800
4 _045_:1 _045_:5 6.629500
5 _045_:1 _149_:A1 0.000000
6 _045_:1 _080_:ZN 0.000000
*END

*D_NET _046_ 3.655258
*CONN
*I _152_:A1 B
*I _137_:A2 B
*I _081_:ZN B
*CAP
1 _046_:1 3.627490
2 _046_:1 _048_:1 0.004628
3 _046_:1 _057_:1 0.004628
4 _046_:1 clknet_2_0__leaf_clk:1 0.004628
5 _046_:1 ph\[11\]:1 0.004628
6 _046_:1 ph\[13\]:1 0.004628
7 _046_:1 q2:1 0.004628
*RES
1 _046_:1 _046_:2 29.734300
2 _046_:1 _046_:3 18.616700
3 _046_:1 _046_:4 12.944600
4 _046_:1 _046_:5 14.978100
5 _046_:1 _046_:6 28.878700
6 _046_:1 _046_:7 21.416600
7 _046_:1 _152_:A1 0.000000
8 _046_:1 _137_:A2 0.000000
9 _046_:1 _081_:ZN 0.000000
*END

*D_NET _047_ 3.748044
*CONN
*I _154_:A1 B
*I _139_:A2 B
*I _082_:ZN B
*CAP
1 _047_:1 3.687181
2 _047_:1 _057_:1 0.000331
3 _047_:1 _064_:1 0.004958
4 _047_:1 clknet_2_0__leaf_clk:1 0.016982
5 _047_:1 cmp 0.004628
6 _047_:1 ph\[10\]:1 0.009999
7 _047_:1 ph\[11\]:1 0.009255
8 _047_:1 q2:1 0.004628
9 _047_:1 q3:1 0.010082
*RES
1 _047_:1 _047_:2 13.889300
2 _047_:1 _047_:3 27.722700
3 _047_:1 _047_:4 25.033100
4 _047_:1 _047_:5 9.567200
5 _047_:1 _047_:6 26.823900
6 _047_:1 _047_:7 23.927800
7 _047_:1 _154_:A1 0.000000
8 _047_:1 _139_:A2 0.000000
9 _047_:1 _082_:ZN 0.000000
*END

*D_NET _048_ 4.215492
*CONN
*I _156_:A1 B
*I _140_:A2 B
*I _083_:ZN B
*CAP
1 _048_:1 4.155165
2 _048_:1 _057_:1 0.004628
3 _048_:1 _062_:1 0.004628
4 _048_:1 clknet_2_0__leaf_clk:1 0.004628
5 _048_:1 clknet_2_1__leaf_clk:1 0.000165
6 _048_:1 cmp 0.004628
7 _048_:1 ph\[11\]:1 0.004628
8 _048_:1 ph\[12\]:1 0.004628
9 _048_:1 ph\[9\]:1 0.004628
10 _048_:1 start 0.027766
*RES
1 _048_:1 _048_:2 32.985100
2 _048_:1 _048_:3 23.032800
3 _048_:1 _048_:4 11.039000
4 _048_:1 _048_:5 10.063300
5 _048_:1 _048_:6 31.195400
6 _048_:1 _048_:7 20.893400
7 _048_:1 _156_:A1 0.000000
8 _048_:1 _140_:A2 0.000000
9 _048_:1 _083_:ZN 0.000000
*END

*D_NET _049_ 11.559495
*CONN
*I _157_:A1 B
*I _141_:A2 B
*I _084_:ZN B
*CAP
1 _049_:1 11.394324
2 _049_:1 c0_r 0.004628
3 _049_:1 c3_r 0.004628
4 _049_:1 c7_r 0.004628
5 _049_:1 c8_r 0.004628
6 _049_:1 c9_r 0.004628
7 _049_:1 clk 0.004628
8 _049_:1 clknet_0_clk:1 0.004628
9 _049_:1 clknet_2_0__leaf_clk:1 0.004628
10 _049_:1 clknet_2_1__leaf_clk:1 0.018511
11 _049_:1 clknet_2_3__leaf_clk:1 0.019780
12 _049_:1 cmp 0.004628
13 _049_:1 ph\[13\]:1 0.009255
14 _049_:1 ph\[14\]:1 0.009255
15 _049_:1 ph[15] 0.004628
16 _049_:1 ph\[8\]:1 0.006393
17 _049_:1 ph\[9\]:1 0.004628
18 _049_:1 q1:1 0.009255
19 _049_:1 q3:1 0.004628
20 _049_:1 q4:1 0.013883
21 _049_:1 q7:1 0.009255
22 _049_:1 start 0.014048
*RES
1 _049_:1 _049_:2 15.197000
2 _049_:1 _049_:3 41.575100
3 _049_:1 _049_:4 26.420700
4 _049_:1 _049_:5 26.373600
5 _049_:1 _049_:6 15.309900
6 _049_:1 _049_:7 41.591400
7 _049_:1 _157_:A1 0.000000
8 _049_:1 _141_:A2 0.000000
9 _049_:1 _084_:ZN 0.000000
*END

*D_NET _050_ 3.513289
*CONN
*I _159_:A1 B
*I _142_:A2 B
*I _085_:ZN B
*CAP
1 _050_:1 3.464197
2 _050_:1 _051_:1 0.004628
3 _050_:1 _052_:1 0.009255
4 _050_:1 clknet_2_2__leaf_clk:1 0.009255
5 _050_:1 clknet_2_3__leaf_clk:1 0.000165
6 _050_:1 eng7:1 0.009816
7 _050_:1 ph\[13\]:1 0.004628
8 _050_:1 ph\[7\]:1 0.006717
9 _050_:1 start 0.004628
*RES
1 _050_:1 _050_:2 26.568500
2 _050_:1 _050_:3 12.134500
3 _050_:1 _050_:4 21.319700
4 _050_:1 _050_:5 23.092400
5 _050_:1 _050_:6 24.711000
6 _050_:1 _050_:7 17.962400
7 _050_:1 _159_:A1 0.000000
8 _050_:1 _142_:A2 0.000000
9 _050_:1 _085_:ZN 0.000000
*END

*D_NET _051_ 3.398834
*CONN
*I _161_:A1 B
*I _144_:A2 B
*I _086_:ZN B
*CAP
1 _051_:1 3.334044
2 _051_:1 _052_:1 0.004628
3 _051_:1 clknet_2_2__leaf_clk:1 0.004628
4 _051_:1 eng7:1 0.032394
5 _051_:1 ph[15] 0.004628
6 _051_:1 q6:1 0.004628
7 _051_:1 q8:1 0.004628
8 _051_:1 q9:1 0.004628
9 _051_:1 start 0.004628
*RES
1 _051_:1 _051_:2 25.799500
2 _051_:1 _051_:3 12.508000
3 _051_:1 _051_:4 26.102700
4 _051_:1 _051_:5 20.656000
5 _051_:1 _051_:6 29.654000
6 _051_:1 _051_:7 10.331100
7 _051_:1 _161_:A1 0.000000
8 _051_:1 _144_:A2 0.000000
9 _051_:1 _086_:ZN 0.000000
*END

*D_NET _052_ 5.889094
*CONN
*I _162_:A1 B
*I _145_:A2 B
*I _087_:ZN B
*CAP
1 _052_:1 5.785898
2 _052_:1 _053_:1 0.004628
3 _052_:1 c6_r 0.009255
4 _052_:1 c7_r 0.004628
5 _052_:1 clknet_2_2__leaf_clk:1 0.009255
6 _052_:1 clknet_2_3__leaf_clk:1 0.004628
7 _052_:1 cmp 0.009255
8 _052_:1 eng5:1 0.009255
9 _052_:1 eng7:1 0.009255
10 _052_:1 eng9:1 0.009255
11 _052_:1 ph\[13\]:1 0.004628
12 _052_:1 ph[15] 0.004628
13 _052_:1 ph\[5\]:1 0.004628
14 _052_:1 ph\[6\]:1 0.004628
15 _052_:1 q5:1 0.000561
16 _052_:1 q6:1 0.000826
17 _052_:1 q7:1 0.004628
18 _052_:1 start 0.009255
*RES
1 _052_:1 _052_:2 26.679000
2 _052_:1 _052_:3 12.118900
3 _052_:1 _052_:4 31.780600
4 _052_:1 _052_:5 30.830100
5 _052_:1 _052_:6 26.618700
6 _052_:1 _052_:7 9.376100
7 _052_:1 _162_:A1 0.000000
8 _052_:1 _145_:A2 0.000000
9 _052_:1 _087_:ZN 0.000000
*END

*D_NET _053_ 5.046832
*CONN
*I _164_:A1 B
*I _146_:A2 B
*I _088_:ZN B
*CAP
1 _053_:1 4.960142
2 _053_:1 _061_:1 0.000673
3 _053_:1 clknet_0_clk:1 0.004628
4 _053_:1 clknet_2_3__leaf_clk:1 0.004628
5 _053_:1 cmp 0.009255
6 _053_:1 eng9:1 0.004628
7 _053_:1 ph\[13\]:1 0.000561
8 _053_:1 ph[15] 0.006381
9 _053_:1 ph\[4\]:1 0.008054
10 _053_:1 ph\[5\]:1 0.005407
11 _053_:1 ph\[6\]:1 0.027766
12 _053_:1 q5:1 0.004628
13 _053_:1 q7:1 0.000826
14 _053_:1 start 0.009255
*RES
1 _053_:1 _053_:2 33.262100
2 _053_:1 _053_:3 15.350600
3 _053_:1 _053_:4 18.061200
4 _053_:1 _053_:5 17.813500
5 _053_:1 _053_:6 33.434100
6 _053_:1 _053_:7 15.595100
7 _053_:1 _164_:A1 0.000000
8 _053_:1 _146_:A2 0.000000
9 _053_:1 _088_:ZN 0.000000
*END

*D_NET _054_ 1.349824
*CONN
*I _148_:A1 B
*I _089_:ZN B
*CAP
1 _054_:1 1.330569
2 _054_:1 cmp 0.004628
3 _054_:1 ph\[14\]:1 0.005371
4 _054_:1 q7:1 0.004628
5 _054_:1 start 0.004628
*RES
1 _054_:1 _054_:2 7.270700
2 _054_:1 _054_:3 23.043100
3 _054_:1 _054_:4 7.633000
4 _054_:1 _054_:5 23.450100
5 _054_:1 _148_:A1 0.000000
6 _054_:1 _089_:ZN 0.000000
*END

*D_NET _055_ 1.236124
*CONN
*I _174_:B B
*I _173_:ZN B
*CAP
1 _055_:1 1.225109
2 _055_:1 ph\[13\]:1 0.005289
3 _055_:1 q0:1 0.005726
*RES
1 _055_:1 _055_:2 13.872700
2 _055_:1 _055_:3 15.285400
3 _055_:1 _055_:4 13.969400
4 _055_:1 _055_:5 6.341200
5 _055_:1 _055_:6 11.991800
6 _055_:1 _174_:B 0.000000
7 _055_:1 _173_:ZN 0.000000
*END

*D_NET _056_ 1.302888
*CONN
*I _177_:B B
*I _176_:ZN B
*CAP
1 _056_:1 1.296779
2 _056_:1 ph\[7\]:1 0.006109
*RES
1 _056_:1 _056_:2 23.243700
2 _056_:1 _056_:3 20.511500
3 _056_:1 _056_:4 5.889800
4 _056_:1 _056_:5 6.598800
5 _056_:1 _056_:6 5.508100
6 _056_:1 _177_:B 0.000000
7 _056_:1 _176_:ZN 0.000000
*END

*D_NET _057_ 2.603732
*CONN
*I _181_:B B
*I _180_:ZN B
*CAP
1 _057_:1 2.588989
2 _057_:1 clknet_2_1__leaf_clk:1 0.004628
3 _057_:1 cmp 0.004628
4 _057_:1 ph\[11\]:1 0.000673
5 _057_:1 q2:1 0.000186
6 _057_:1 start 0.004628
*RES
1 _057_:1 _057_:2 18.524300
2 _057_:1 _057_:3 15.297600
3 _057_:1 _057_:4 9.414800
4 _057_:1 _057_:5 12.161100
5 _057_:1 _057_:6 12.336800
6 _057_:1 _181_:B 0.000000
7 _057_:1 _180_:ZN 0.000000
*END

*D_NET _058_ 1.344176
*CONN
*I _183_:B B
*I _182_:ZN B
*CAP
1 _058_:1 1.328091
2 _058_:1 cmp 0.004628
3 _058_:1 ph\[6\]:1 0.006528
4 _058_:1 q7:1 0.004929
*RES
1 _058_:1 _058_:2 21.165300
2 _058_:1 _058_:3 8.644900
3 _058_:1 _058_:4 4.144600
4 _058_:1 _058_:5 13.859700
5 _058_:1 _058_:6 14.124700
6 _058_:1 _183_:B 0.000000
7 _058_:1 _182_:ZN 0.000000
*END

*D_NET _059_ 1.343528
*CONN
*I _185_:B B
*I _184_:ZN B
*CAP
1 _059_:1 1.335497
2 _059_:1 cmp 0.005301
3 _059_:1 ph\[8\]:1 0.000685
4 _059_:1 q5:1 0.002045
*RES
1 _059_:1 _059_:2 9.395400
2 _059_:1 _059_:3 2.304700
3 _059_:1 _059_:4 21.401900
4 _059_:1 _059_:5 15.295400
5 _059_:1 _059_:6 13.567500
6 _059_:1 _185_:B 0.000000
7 _059_:1 _184_:ZN 0.000000
*END

*D_NET _060_ 1.236719
*CONN
*I _187_:B B
*I _186_:ZN B
*CAP
1 _060_:1 1.224878
2 _060_:1 ph\[12\]:1 0.005289
3 _060_:1 q1:1 0.006552
*RES
1 _060_:1 _060_:2 13.872700
2 _060_:1 _060_:3 15.285400
3 _060_:1 _060_:4 13.969400
4 _060_:1 _060_:5 6.341200
5 _060_:1 _060_:6 11.991800
6 _060_:1 _187_:B 0.000000
7 _060_:1 _186_:ZN 0.000000
*END

*D_NET _061_ 2.428055
*CONN
*I _190_:B B
*I _189_:ZN B
*CAP
1 _061_:1 2.406184
2 _061_:1 clknet_2_3__leaf_clk:1 0.005749
3 _061_:1 cmp 0.000797
4 _061_:1 ph\[5\]:1 0.000449
5 _061_:1 q8:1 0.009917
6 _061_:1 q9:1 0.004628
7 _061_:1 start 0.000331
*RES
1 _061_:1 _061_:2 18.727100
2 _061_:1 _061_:3 8.763900
3 _061_:1 _061_:4 14.634200
4 _061_:1 _061_:5 12.292800
5 _061_:1 _061_:6 12.445600
6 _061_:1 _190_:B 0.000000
7 _061_:1 _189_:ZN 0.000000
*END

*D_NET _062_ 1.615467
*CONN
*I _194_:B B
*I _193_:ZN B
*CAP
1 _062_:1 1.598018
2 _062_:1 clknet_2_1__leaf_clk:1 0.005749
3 _062_:1 cmp 0.005301
4 _062_:1 ph\[9\]:1 0.006068
5 _062_:1 start 0.000331
*RES
1 _062_:1 _062_:2 11.868800
2 _062_:1 _062_:3 19.472200
3 _062_:1 _062_:4 6.161700
4 _062_:1 _062_:5 12.797000
5 _062_:1 _062_:6 12.899600
6 _062_:1 _194_:B 0.000000
7 _062_:1 _193_:ZN 0.000000
*END

*D_NET _063_ 1.364098
*CONN
*I _196_:B B
*I _195_:ZN B
*CAP
1 _063_:1 1.356802
2 _063_:1 clknet_2_3__leaf_clk:1 0.000673
3 _063_:1 ph\[2\]:1 0.000301
4 _063_:1 ph\[4\]:1 0.000331
5 _063_:1 ph\[5\]:1 0.005991
*RES
1 _063_:1 _063_:2 15.420400
2 _063_:1 _063_:3 14.092800
3 _063_:1 _063_:4 13.995300
4 _063_:1 _063_:5 6.397200
5 _063_:1 _063_:6 12.097700
6 _063_:1 _196_:B 0.000000
7 _063_:1 _195_:ZN 0.000000
*END

*D_NET _064_ 1.405659
*CONN
*I _200_:B B
*I _199_:ZN B
*CAP
1 _064_:1 1.393346
2 _064_:1 ph\[10\]:1 0.012313
*RES
1 _064_:1 _064_:2 15.465200
2 _064_:1 _064_:3 14.133700
3 _064_:1 _064_:4 14.036000
4 _064_:1 _064_:5 6.415800
5 _064_:1 _064_:6 12.132900
6 _064_:1 _200_:B 0.000000
7 _064_:1 _199_:ZN 0.000000
*END

*D_NET c0_r 4.296351
*CONN
*P c0_r B
*I _211_:Q B
*I _175_:I0 B
*CAP
1 c0_r 4.128961
2 c0_r c4_r 0.005785
3 c0_r clknet_0_clk:1 0.004628
4 c0_r clknet_2_0__leaf_clk:1 0.004628
5 c0_r clknet_2_1__leaf_clk:1 0.004628
6 c0_r cmp 0.004628
7 c0_r eng1:1 0.004628
8 c0_r eng2:1 0.004628
9 c0_r eng3:1 0.004628
10 c0_r eng4:1 0.005407
11 c0_r mode 0.003187
12 c0_r ph\[13\]:1 0.004628
13 c0_r ph\[14\]:1 0.022498
14 c0_r q2:1 0.004628
15 c0_r q3:1 0.044707
16 c0_r q4:1 0.004628
17 c0_r sel_hi_n_16p 0.001676
18 c0_r sel_hi_n_2n 0.004628
19 c0_r sel_hi_n_4n 0.004628
20 c0_r sel_hi_n_8n 0.004628
21 c0_r sel_lo_n_16n 0.005454
22 c0_r sel_lo_n_2p 0.004628
23 c0_r sel_lo_n_4p 0.004628
24 c0_r sel_lo_n_8p 0.004628
25 c0_r start 0.004628
*RES
1 c0_r c0_r:2 15.518600
2 c0_r c0_r:3 20.931900
3 c0_r c0_r:4 20.535600
4 c0_r c0_r:5 15.908900
5 c0_r _211_:Q 0.000000
6 c0_r _175_:I0 0.000000
*END

*D_NET c1_r 3.577485
*CONN
*P c1_r B
*I _212_:Q B
*I _178_:I0 B
*CAP
1 c1_r 3.454822
2 c1_r c6_r 0.004628
3 c1_r clknet_0_clk:1 0.004628
4 c1_r cmp 0.004628
5 c1_r eng1:1 0.004628
6 c1_r eng3:1 0.004628
7 c1_r eng4:1 0.004628
8 c1_r eng6:1 0.004628
9 c1_r eng7:1 0.004628
10 c1_r eng9:1 0.004628
11 c1_r mode 0.004982
12 c1_r ph\[14\]:1 0.020907
13 c1_r q5:1 0.004628
14 c1_r q6:1 0.004628
15 c1_r q7:1 0.004628
16 c1_r q8:1 0.004628
17 c1_r q9:1 0.008541
18 c1_r sel_hi_n_1n 0.004628
19 c1_r sel_hi_n_64n 0.004628
20 c1_r sel_in_n 0.004628
21 c1_r sel_lo_n_256p 0.000301
22 c1_r sel_lo_n_32n 0.004628
23 c1_r sel_lo_n_32p 0.004628
24 c1_r start 0.004628
*RES
1 c1_r c1_r:2 14.015300
2 c1_r c1_r:3 20.761900
3 c1_r c1_r:4 14.385300
4 c1_r c1_r:5 20.347800
5 c1_r _212_:Q 0.000000
6 c1_r _178_:I0 0.000000
*END

*D_NET c2_r 4.084322
*CONN
*P c2_r B
*I _213_:Q B
*I _179_:I0 B
*CAP
1 c2_r 3.897135
2 c2_r c4_r 0.004628
3 c2_r c5_r 0.009255
4 c2_r c8_r 0.004628
5 c2_r c9_r 0.009255
6 c2_r clknet_0_clk:1 0.004628
7 c2_r eng1:1 0.009255
8 c2_r eng2:1 0.009255
9 c2_r eng3:1 0.004628
10 c2_r eng4:1 0.004628
11 c2_r eng6:1 0.004628
12 c2_r eng7:1 0.009255
13 c2_r eng8:1 0.010082
14 c2_r eng9:1 0.009255
15 c2_r mode 0.004628
16 c2_r ph[15] 0.004848
17 c2_r q1:1 0.009255
18 c2_r q2:1 0.004628
19 c2_r q5:1 0.005661
20 c2_r q8:1 0.009255
21 c2_r q9:1 0.009255
22 c2_r rel_n_2p 0.004628
23 c2_r sel_hi_n_16p 0.009255
24 c2_r sel_hi_n_2p 0.009255
25 c2_r sel_hi_n_4n 0.009255
26 c2_r sel_hi_n_64p 0.004628
27 c2_r sel_in_n 0.004628
28 c2_r sel_lo_n_4n 0.004628
*RES
1 c2_r c2_r:2 13.936100
2 c2_r c2_r:3 22.061800
3 c2_r c2_r:4 21.398900
4 c2_r c2_r:5 14.508100
5 c2_r _213_:Q 0.000000
6 c2_r _179_:I0 0.000000
*END

*D_NET c3_r 6.215533
*CONN
*P c3_r B
*I _214_:Q B
*I _188_:I0 B
*CAP
1 c3_r 6.036838
2 c3_r c5_r 0.004628
3 c3_r c8_r 0.004628
4 c3_r c9_r 0.004628
5 c3_r clk 0.004628
6 c3_r clknet_0_clk:1 0.009255
7 c3_r clknet_2_1__leaf_clk:1 0.004628
8 c3_r clknet_2_2__leaf_clk:1 0.004628
9 c3_r cmp 0.004628
10 c3_r eng1:1 0.004628
11 c3_r eng3:1 0.004628
12 c3_r eng4:1 0.004628
13 c3_r eng5:1 0.004628
14 c3_r eng6:1 0.004628
15 c3_r eng7:1 0.004628
16 c3_r eng9:1 0.004628
17 c3_r mode 0.004628
18 c3_r ph\[13\]:1 0.004628
19 c3_r ph\[14\]:1 0.020907
20 c3_r ph[15] 0.004848
21 c3_r q1:1 0.013883
22 c3_r q5:1 0.009255
23 c3_r q7:1 0.004628
24 c3_r q8:1 0.009255
25 c3_r q9:1 0.004628
26 c3_r sel_hi_n_16p 0.004628
27 c3_r sel_hi_n_2p 0.004628
28 c3_r sel_hi_n_32p 0.004628
29 c3_r sel_hi_n_8n 0.004848
30 c3_r sel_in_n 0.004628
31 c3_r start 0.004628
*RES
1 c3_r c3_r:2 16.474300
2 c3_r c3_r:3 25.360300
3 c3_r c3_r:4 17.034800
4 c3_r c3_r:5 24.780600
5 c3_r _214_:Q 0.000000
6 c3_r _188_:I0 0.000000
*END

*D_NET c4_r 5.268917
*CONN
*P c4_r B
*I _215_:Q B
*I _191_:I0 B
*CAP
1 c4_r 5.075183
2 c4_r c5_r 0.013883
3 c4_r c8_r 0.004628
4 c4_r c9_r 0.004628
5 c4_r clk 0.004628
6 c4_r clknet_0_clk:1 0.004628
7 c4_r clknet_2_0__leaf_clk:1 0.004628
8 c4_r cmp 0.004628
9 c4_r eng1:1 0.004628
10 c4_r eng2:1 0.004628
11 c4_r eng3:1 0.004628
12 c4_r eng4:1 0.004628
13 c4_r eng6:1 0.004628
14 c4_r eng7:1 0.004628
15 c4_r eng8:1 0.009255
16 c4_r eng9:1 0.004628
17 c4_r mode 0.004628
18 c4_r ph\[14\]:1 0.026692
19 c4_r ph[15] 0.004848
20 c4_r q1:1 0.009255
21 c4_r q3:1 0.004628
22 c4_r q5:1 0.009255
23 c4_r q8:1 0.009255
24 c4_r q9:1 0.004628
25 c4_r sel_hi_n_16p 0.004628
26 c4_r sel_hi_n_2p 0.004628
27 c4_r sel_hi_n_64p 0.004628
28 c4_r sel_hi_n_8n 0.004848
29 c4_r sel_in_n 0.004628
30 c4_r sel_lo_n_4n 0.004628
31 c4_r start 0.009255
*RES
1 c4_r c4_r:2 15.868600
2 c4_r c4_r:3 23.586400
3 c4_r c4_r:4 22.928600
4 c4_r c4_r:5 16.411100
5 c4_r _215_:Q 0.000000
6 c4_r _191_:I0 0.000000
*END

*D_NET c5_r 3.756531
*CONN
*P c5_r B
*I _216_:Q B
*I _192_:I0 B
*CAP
1 c5_r 3.627584
2 c5_r clknet_0_clk:1 0.010412
3 c5_r cmp 0.004628
4 c5_r eng1:1 0.004628
5 c5_r eng2:1 0.004628
6 c5_r eng3:1 0.004628
7 c5_r eng4:1 0.004628
8 c5_r eng6:1 0.004628
9 c5_r eng7:1 0.004628
10 c5_r eng8:1 0.013883
11 c5_r eng9:1 0.004628
12 c5_r mode 0.004628
13 c5_r ph\[14\]:1 0.011652
14 c5_r ph[15] 0.004848
15 c5_r q1:1 0.004628
16 c5_r q5:1 0.004628
17 c5_r q8:1 0.004628
18 c5_r q9:1 0.004628
19 c5_r sel_hi_n_16p 0.004628
20 c5_r sel_hi_n_64p 0.004628
21 c5_r sel_hi_n_8n 0.004848
22 c5_r sel_in_n 0.004628
23 c5_r sel_lo_n_4n 0.004628
24 c5_r start 0.004628
*RES
1 c5_r c5_r:2 15.097100
2 c5_r c5_r:3 20.222700
3 c5_r c5_r:4 19.844200
4 c5_r c5_r:5 15.468100
5 c5_r _216_:Q 0.000000
6 c5_r _192_:I0 0.000000
*END

*D_NET c6_r 4.056754
*CONN
*P c6_r B
*I _217_:Q B
*I _197_:I0 B
*CAP
1 c6_r 3.934349
2 c6_r c7_r 0.004628
3 c6_r clknet_0_clk:1 0.004628
4 c6_r clknet_2_2__leaf_clk:1 0.004628
5 c6_r cmp 0.004628
6 c6_r eng5:1 0.004628
7 c6_r eng6:1 0.004628
8 c6_r eng7:1 0.004628
9 c6_r eng9:1 0.010082
10 c6_r ph\[13\]:1 0.009255
11 c6_r ph\[14\]:1 0.005661
12 c6_r ph[15] 0.009255
13 c6_r q5:1 0.004628
14 c6_r q6:1 0.004628
15 c6_r q7:1 0.004628
16 c6_r q8:1 0.004628
17 c6_r q9:1 0.004628
18 c6_r samp_tp_n 0.004628
19 c6_r sel_hi_n_128n 0.004628
20 c6_r sel_hi_n_32n 0.004628
21 c6_r sel_hi_n_64n 0.004628
22 c6_r sel_hi_n_8n 0.004848
23 c6_r sel_in_n 0.004628
24 c6_r sel_lo_n_32p 0.004628
*RES
1 c6_r c6_r:2 21.236100
2 c6_r c6_r:3 15.426300
3 c6_r c6_r:4 20.419700
4 c6_r c6_r:5 15.952600
5 c6_r _217_:Q 0.000000
6 c6_r _197_:I0 0.000000
*END

*D_NET c7_r 4.718099
*CONN
*P c7_r B
*I _218_:Q B
*I _198_:I0 B
*CAP
1 c7_r 4.594936
2 c7_r clknet_0_clk:1 0.004628
3 c7_r clknet_2_2__leaf_clk:1 0.004628
4 c7_r clknet_2_3__leaf_clk:1 0.009255
5 c7_r cmp 0.004628
6 c7_r eng5:1 0.004628
7 c7_r eng6:1 0.004628
8 c7_r eng7:1 0.004628
9 c7_r eng9:1 0.004628
10 c7_r ph\[13\]:1 0.004628
11 c7_r ph\[14\]:1 0.007024
12 c7_r ph[15] 0.004848
13 c7_r q5:1 0.004628
14 c7_r q6:1 0.004628
15 c7_r q7:1 0.004628
16 c7_r q8:1 0.004628
17 c7_r q9:1 0.004628
18 c7_r rel_n_1n 0.004628
19 c7_r rel_n_8p 0.004628
20 c7_r samp_tp_n 0.004628
21 c7_r sel_hi_n_64n 0.004628
22 c7_r sel_hi_n_8n 0.004848
23 c7_r sel_in_n 0.004628
24 c7_r sel_lo_n_32p 0.004628
25 c7_r sel_lo_n_64p 0.004628
26 c7_r start 0.004628
*RES
1 c7_r c7_r:2 16.986100
2 c7_r c7_r:3 21.617400
3 c7_r c7_r:4 16.803600
4 c7_r c7_r:5 21.407600
5 c7_r _218_:Q 0.000000
6 c7_r _198_:I0 0.000000
*END

*D_NET c8_r 4.324634
*CONN
*P c8_r B
*I _219_:Q B
*I _171_:I0 B
*CAP
1 c8_r 4.192628
2 c8_r c9_r 0.004628
3 c8_r clk 0.004628
4 c8_r clknet_0_clk:1 0.004628
5 c8_r clknet_2_1__leaf_clk:1 0.004628
6 c8_r cmp 0.004628
7 c8_r eng1:1 0.004628
8 c8_r eng2:1 0.004628
9 c8_r eng3:1 0.004628
10 c8_r eng4:1 0.004628
11 c8_r eng6:1 0.004628
12 c8_r eng8:1 0.009255
13 c8_r eng9:1 0.004628
14 c8_r mode 0.004628
15 c8_r ph\[13\]:1 0.004628
16 c8_r ph\[14\]:1 0.005785
17 c8_r ph[15] 0.004848
18 c8_r q1:1 0.004628
19 c8_r q2:1 0.004628
20 c8_r q5:1 0.000826
21 c8_r q8:1 0.004628
22 c8_r q9:1 0.004628
23 c8_r sel_hi_n_16p 0.004628
24 c8_r sel_hi_n_4n 0.004628
25 c8_r sel_hi_n_64p 0.004628
26 c8_r sel_hi_n_8n 0.004848
27 c8_r sel_in_n 0.004628
28 c8_r sel_lo_n_4n 0.004628
29 c8_r start 0.004628
*RES
1 c8_r c8_r:2 22.646800
2 c8_r c8_r:3 14.633900
3 c8_r c8_r:4 15.030000
4 c8_r c8_r:5 22.114400
5 c8_r _219_:Q 0.000000
6 c8_r _171_:I0 0.000000
*END

*D_NET c9_r 3.913211
*CONN
*P c9_r B
*I _220_:Q B
*I _172_:I0 B
*CAP
1 c9_r 3.753438
2 c9_r clk 0.013883
3 c9_r clknet_0_clk:1 0.004628
4 c9_r clknet_2_0__leaf_clk:1 0.005785
5 c9_r cmp 0.004628
6 c9_r eng1:1 0.004628
7 c9_r eng2:1 0.004628
8 c9_r eng3:1 0.004628
9 c9_r eng4:1 0.004628
10 c9_r eng6:1 0.004628
11 c9_r eng8:1 0.010082
12 c9_r eng9:1 0.004628
13 c9_r mode 0.004628
14 c9_r ph\[13\]:1 0.004628
15 c9_r ph\[14\]:1 0.004628
16 c9_r ph[15] 0.004848
17 c9_r q1:1 0.004628
18 c9_r q2:1 0.023139
19 c9_r q8:1 0.004628
20 c9_r q9:1 0.004628
21 c9_r rel_n_64p 0.004628
22 c9_r sel_hi_n_16p 0.004628
23 c9_r sel_hi_n_4n 0.004628
24 c9_r sel_hi_n_64p 0.004628
25 c9_r sel_hi_n_8n 0.004848
26 c9_r sel_in_n 0.004628
27 c9_r sel_lo_n_4n 0.004628
28 c9_r start 0.004628
*RES
1 c9_r c9_r:2 15.333800
2 c9_r c9_r:3 20.682700
3 c9_r c9_r:4 20.291100
4 c9_r c9_r:5 15.719500
5 c9_r _220_:Q 0.000000
6 c9_r _172_:I0 0.000000
*END

*D_NET clk 3.466945
*CONN
*P clk B
*I clkbuf_0_clk:I B
*CAP
1 clk 3.346178
2 clk clknet_0_clk:1 0.004628
3 clk cmp 0.004628
4 clk eng1:1 0.004628
5 clk eng2:1 0.004628
6 clk eng3:1 0.004628
7 clk eng4:1 0.004628
8 clk eng6:1 0.004628
9 clk eng8:1 0.009255
10 clk eng9:1 0.004628
11 clk mode 0.004628
12 clk ph\[13\]:1 0.004628
13 clk ph\[14\]:1 0.004628
14 clk ph[15] 0.004848
15 clk q1:1 0.004628
16 clk q2:1 0.004628
17 clk q8:1 0.004628
18 clk q9:1 0.004628
19 clk rel_n_64p 0.004628
20 clk sel_hi_n_16p 0.004628
21 clk sel_hi_n_4n 0.004628
22 clk sel_hi_n_64p 0.004628
23 clk sel_hi_n_8n 0.004848
24 clk sel_in_n 0.004628
25 clk sel_lo_n_4n 0.004628
26 clk start 0.004628
*RES
1 clk clk:2 31.531800
2 clk clk:3 32.108100
3 clk clk:4 32.108100
4 clk clk:5 31.531800
5 clk clkbuf_0_clk:I 0.000000
*END

*D_NET clknet_0_clk 14.074128
*CONN
*I clkbuf_2_3__f_clk:I B
*I clkbuf_2_2__f_clk:I B
*I clkbuf_2_1__f_clk:I B
*I clkbuf_2_0__f_clk:I B
*I clkbuf_0_clk:Z B
*CAP
1 clknet_0_clk:1 13.835717
2 clknet_0_clk:1 clknet_2_0__leaf_clk:1 0.004628
3 clknet_0_clk:1 clknet_2_3__leaf_clk:1 0.009255
4 clknet_0_clk:1 cmp 0.013883
5 clknet_0_clk:1 eng4:1 0.004628
6 clknet_0_clk:1 eng9:1 0.004628
7 clknet_0_clk:1 ph\[13\]:1 0.009255
8 clknet_0_clk:1 ph\[14\]:1 0.099579
9 clknet_0_clk:1 ph[15] 0.004628
10 clknet_0_clk:1 q0:1 0.004628
11 clknet_0_clk:1 q1:1 0.009255
12 clknet_0_clk:1 q3:1 0.009255
13 clknet_0_clk:1 q4:1 0.004628
14 clknet_0_clk:1 q5:1 0.013883
15 clknet_0_clk:1 q6:1 0.004628
16 clknet_0_clk:1 q7:1 0.023139
17 clknet_0_clk:1 q8:1 0.004628
18 clknet_0_clk:1 start 0.013883
*RES
1 clknet_0_clk:1 clknet_0_clk:2 31.930100
2 clknet_0_clk:1 clknet_0_clk:3 31.292300
3 clknet_0_clk:1 clknet_0_clk:4 28.231400
4 clknet_0_clk:1 clknet_0_clk:5 28.855400
5 clknet_0_clk:1 clknet_0_clk:6 29.413200
6 clknet_0_clk:1 clknet_0_clk:7 28.202300
7 clknet_0_clk:1 clknet_0_clk:8 28.757800
8 clknet_0_clk:1 clknet_0_clk:9 28.884600
9 clknet_0_clk:1 clknet_0_clk:10 30.977200
10 clknet_0_clk:1 clknet_0_clk:11 29.545600
11 clknet_0_clk:1 clknet_0_clk:12 28.097900
12 clknet_0_clk:1 clknet_0_clk:13 28.782600
13 clknet_0_clk:1 clknet_0_clk:14 28.127100
14 clknet_0_clk:1 clknet_0_clk:15 28.753300
15 clknet_0_clk:1 clknet_0_clk:16 31.620700
16 clknet_0_clk:1 clknet_0_clk:17 28.892500
17 clknet_0_clk:1 clknet_0_clk:18 5.171300
18 clknet_0_clk:1 clknet_0_clk:19 5.291200
19 clknet_0_clk:1 clknet_0_clk:20 5.190200
20 clknet_0_clk:1 clknet_0_clk:21 5.469600
21 clknet_0_clk:1 clknet_0_clk:22 4.038100
22 clknet_0_clk:1 clknet_0_clk:23 3.869700
23 clknet_0_clk:1 clknet_0_clk:24 4.273800
24 clknet_0_clk:1 clknet_0_clk:25 3.900000
25 clknet_0_clk:1 clkbuf_2_3__f_clk:I 0.000000
26 clknet_0_clk:1 clkbuf_2_2__f_clk:I 0.000000
27 clknet_0_clk:1 clkbuf_2_1__f_clk:I 0.000000
28 clknet_0_clk:1 clkbuf_2_0__f_clk:I 0.000000
29 clknet_0_clk:1 clkbuf_0_clk:Z 0.000000
*END

*D_NET clknet_2_0__leaf_clk 19.146062
*CONN
*I clkload0:I B
*I _202_:CLK B
*I _203_:CLK B
*I _216_:CLK B
*I _222_:CLK B
*I _226_:CLK B
*I _227_:CLK B
*I _228_:CLK B
*I _229_:CLK B
*I _240_:CLK B
*I _241_:CLK B
*I clkbuf_2_0__f_clk:Z B
*CAP
1 clknet_2_0__leaf_clk:1 18.917986
2 clknet_2_0__leaf_clk:1 clknet_2_1__leaf_clk:1 0.004628
3 clknet_2_0__leaf_clk:1 cmp 0.006381
4 clknet_2_0__leaf_clk:1 eng1:1 0.004628
5 clknet_2_0__leaf_clk:1 eng4:1 0.004628
6 clknet_2_0__leaf_clk:1 eng8:1 0.009255
7 clknet_2_0__leaf_clk:1 mode 0.004628
8 clknet_2_0__leaf_clk:1 ph\[10\]:1 0.032394
9 clknet_2_0__leaf_clk:1 ph\[11\]:1 0.004628
10 clknet_2_0__leaf_clk:1 ph\[12\]:1 0.005749
11 clknet_2_0__leaf_clk:1 ph\[13\]:1 0.004628
12 clknet_2_0__leaf_clk:1 ph\[14\]:1 0.008146
13 clknet_2_0__leaf_clk:1 q1:1 0.040079
14 clknet_2_0__leaf_clk:1 q2:1 0.004628
15 clknet_2_0__leaf_clk:1 q3:1 0.018511
16 clknet_2_0__leaf_clk:1 q4:1 0.009255
17 clknet_2_0__leaf_clk:1 q8:1 0.013883
18 clknet_2_0__leaf_clk:1 q9:1 0.004628
19 clknet_2_0__leaf_clk:1 sel_hi_n_16p 0.009255
20 clknet_2_0__leaf_clk:1 sel_lo_n_128p 0.004628
21 clknet_2_0__leaf_clk:1 sel_lo_n_16n 0.023139
22 clknet_2_0__leaf_clk:1 start 0.010377
*RES
1 clknet_2_0__leaf_clk:1 clknet_2_0__leaf_clk:2 38.899300
2 clknet_2_0__leaf_clk:1 clknet_2_0__leaf_clk:3 38.109000
3 clknet_2_0__leaf_clk:1 clknet_2_0__leaf_clk:4 22.225100
4 clknet_2_0__leaf_clk:1 clknet_2_0__leaf_clk:5 22.005400
5 clknet_2_0__leaf_clk:1 clknet_2_0__leaf_clk:6 32.267700
6 clknet_2_0__leaf_clk:1 clknet_2_0__leaf_clk:7 51.353900
7 clknet_2_0__leaf_clk:1 clknet_2_0__leaf_clk:8 13.670900
8 clknet_2_0__leaf_clk:1 clknet_2_0__leaf_clk:9 29.176200
9 clknet_2_0__leaf_clk:1 clknet_2_0__leaf_clk:10 14.694400
10 clknet_2_0__leaf_clk:1 clknet_2_0__leaf_clk:11 36.868300
11 clknet_2_0__leaf_clk:1 clknet_2_0__leaf_clk:12 54.130700
12 clknet_2_0__leaf_clk:1 clknet_2_0__leaf_clk:13 3.385800
13 clknet_2_0__leaf_clk:1 clknet_2_0__leaf_clk:14 8.838300
14 clknet_2_0__leaf_clk:1 clknet_2_0__leaf_clk:15 10.161300
15 clknet_2_0__leaf_clk:1 clknet_2_0__leaf_clk:16 2.030100
16 clknet_2_0__leaf_clk:1 clknet_2_0__leaf_clk:17 29.099800
17 clknet_2_0__leaf_clk:1 clknet_2_0__leaf_clk:18 12.143900
18 clknet_2_0__leaf_clk:1 clknet_2_0__leaf_clk:19 54.004500
19 clknet_2_0__leaf_clk:1 clknet_2_0__leaf_clk:20 16.540200
20 clknet_2_0__leaf_clk:1 clknet_2_0__leaf_clk:21 51.538300
21 clknet_2_0__leaf_clk:1 clknet_2_0__leaf_clk:22 36.813700
22 clknet_2_0__leaf_clk:1 clknet_2_0__leaf_clk:23 31.688700
23 clknet_2_0__leaf_clk:1 clknet_2_0__leaf_clk:24 24.539900
24 clknet_2_0__leaf_clk:1 clknet_2_0__leaf_clk:25 24.338500
25 clknet_2_0__leaf_clk:1 clknet_2_0__leaf_clk:26 11.092900
26 clknet_2_0__leaf_clk:1 clknet_2_0__leaf_clk:27 8.846500
27 clknet_2_0__leaf_clk:1 clknet_2_0__leaf_clk:28 9.962300
28 clknet_2_0__leaf_clk:1 clknet_2_0__leaf_clk:29 12.234100
29 clknet_2_0__leaf_clk:1 clknet_2_0__leaf_clk:30 10.708300
30 clknet_2_0__leaf_clk:1 clknet_2_0__leaf_clk:31 8.344100
31 clknet_2_0__leaf_clk:1 clknet_2_0__leaf_clk:32 11.891800
32 clknet_2_0__leaf_clk:1 clknet_2_0__leaf_clk:33 9.525600
33 clknet_2_0__leaf_clk:1 clkload0:I 0.000000
34 clknet_2_0__leaf_clk:1 _202_:CLK 0.000000
35 clknet_2_0__leaf_clk:1 _203_:CLK 0.000000
36 clknet_2_0__leaf_clk:1 _216_:CLK 0.000000
37 clknet_2_0__leaf_clk:1 _222_:CLK 0.000000
38 clknet_2_0__leaf_clk:1 _226_:CLK 0.000000
39 clknet_2_0__leaf_clk:1 _227_:CLK 0.000000
40 clknet_2_0__leaf_clk:1 _228_:CLK 0.000000
41 clknet_2_0__leaf_clk:1 _229_:CLK 0.000000
42 clknet_2_0__leaf_clk:1 _240_:CLK 0.000000
43 clknet_2_0__leaf_clk:1 _241_:CLK 0.000000
44 clknet_2_0__leaf_clk:1 clkbuf_2_0__f_clk:Z 0.000000
*END

*D_NET clknet_2_1__leaf_clk 18.696960
*CONN
*I _201_:CLK B
*I _204_:CLK B
*I _210_:CLK B
*I _211_:CLK B
*I _213_:CLK B
*I _214_:CLK B
*I _215_:CLK B
*I _219_:CLK B
*I _220_:CLK B
*I _239_:CLK B
*I _242_:CLK B
*I _243_:CLK B
*I _244_:CLK B
*I clkbuf_2_1__f_clk:Z B
*CAP
1 clknet_2_1__leaf_clk:1 18.573274
2 clknet_2_1__leaf_clk:1 cmp 0.024260
3 clknet_2_1__leaf_clk:1 ph\[11\]:1 0.004628
4 clknet_2_1__leaf_clk:1 ph\[13\]:1 0.009255
5 clknet_2_1__leaf_clk:1 ph\[14\]:1 0.010377
6 clknet_2_1__leaf_clk:1 ph\[9\]:1 0.004628
7 clknet_2_1__leaf_clk:1 q0:1 0.005749
8 clknet_2_1__leaf_clk:1 q1:1 0.023139
9 clknet_2_1__leaf_clk:1 q3:1 0.004628
10 clknet_2_1__leaf_clk:1 q4:1 0.013883
11 clknet_2_1__leaf_clk:1 start 0.023139
*RES
1 clknet_2_1__leaf_clk:1 clknet_2_1__leaf_clk:2 16.728900
2 clknet_2_1__leaf_clk:1 clknet_2_1__leaf_clk:3 19.642100
3 clknet_2_1__leaf_clk:1 clknet_2_1__leaf_clk:4 26.405500
4 clknet_2_1__leaf_clk:1 clknet_2_1__leaf_clk:5 13.647100
5 clknet_2_1__leaf_clk:1 clknet_2_1__leaf_clk:6 47.793100
6 clknet_2_1__leaf_clk:1 clknet_2_1__leaf_clk:7 9.518500
7 clknet_2_1__leaf_clk:1 clknet_2_1__leaf_clk:8 44.295900
8 clknet_2_1__leaf_clk:1 clknet_2_1__leaf_clk:9 37.056100
9 clknet_2_1__leaf_clk:1 clknet_2_1__leaf_clk:10 11.589200
10 clknet_2_1__leaf_clk:1 clknet_2_1__leaf_clk:11 44.865600
11 clknet_2_1__leaf_clk:1 clknet_2_1__leaf_clk:12 10.144700
12 clknet_2_1__leaf_clk:1 clknet_2_1__leaf_clk:13 35.854900
13 clknet_2_1__leaf_clk:1 clknet_2_1__leaf_clk:14 33.871200
14 clknet_2_1__leaf_clk:1 clknet_2_1__leaf_clk:15 48.251900
15 clknet_2_1__leaf_clk:1 clknet_2_1__leaf_clk:16 44.127200
16 clknet_2_1__leaf_clk:1 clknet_2_1__leaf_clk:17 12.329400
17 clknet_2_1__leaf_clk:1 clknet_2_1__leaf_clk:18 11.352400
18 clknet_2_1__leaf_clk:1 clknet_2_1__leaf_clk:19 19.185200
19 clknet_2_1__leaf_clk:1 clknet_2_1__leaf_clk:20 27.181700
20 clknet_2_1__leaf_clk:1 clknet_2_1__leaf_clk:21 44.992700
21 clknet_2_1__leaf_clk:1 clknet_2_1__leaf_clk:22 14.184200
22 clknet_2_1__leaf_clk:1 clknet_2_1__leaf_clk:23 9.063100
23 clknet_2_1__leaf_clk:1 clknet_2_1__leaf_clk:24 15.636200
24 clknet_2_1__leaf_clk:1 clknet_2_1__leaf_clk:25 36.731400
25 clknet_2_1__leaf_clk:1 clknet_2_1__leaf_clk:26 36.139100
26 clknet_2_1__leaf_clk:1 clknet_2_1__leaf_clk:27 34.385300
27 clknet_2_1__leaf_clk:1 clknet_2_1__leaf_clk:28 12.080500
28 clknet_2_1__leaf_clk:1 clknet_2_1__leaf_clk:29 10.690300
29 clknet_2_1__leaf_clk:1 clknet_2_1__leaf_clk:30 11.337000
30 clknet_2_1__leaf_clk:1 clknet_2_1__leaf_clk:31 12.904000
31 clknet_2_1__leaf_clk:1 clknet_2_1__leaf_clk:32 8.604700
32 clknet_2_1__leaf_clk:1 clknet_2_1__leaf_clk:33 10.294700
33 clknet_2_1__leaf_clk:1 clknet_2_1__leaf_clk:34 11.256000
34 clknet_2_1__leaf_clk:1 clknet_2_1__leaf_clk:35 9.403700
35 clknet_2_1__leaf_clk:1 _201_:CLK 0.000000
36 clknet_2_1__leaf_clk:1 _204_:CLK 0.000000
37 clknet_2_1__leaf_clk:1 _210_:CLK 0.000000
38 clknet_2_1__leaf_clk:1 _211_:CLK 0.000000
39 clknet_2_1__leaf_clk:1 _213_:CLK 0.000000
40 clknet_2_1__leaf_clk:1 _214_:CLK 0.000000
41 clknet_2_1__leaf_clk:1 _215_:CLK 0.000000
42 clknet_2_1__leaf_clk:1 _219_:CLK 0.000000
43 clknet_2_1__leaf_clk:1 _220_:CLK 0.000000
44 clknet_2_1__leaf_clk:1 _239_:CLK 0.000000
45 clknet_2_1__leaf_clk:1 _242_:CLK 0.000000
46 clknet_2_1__leaf_clk:1 _243_:CLK 0.000000
47 clknet_2_1__leaf_clk:1 _244_:CLK 0.000000
48 clknet_2_1__leaf_clk:1 clkbuf_2_1__f_clk:Z 0.000000
*END

*D_NET clknet_2_2__leaf_clk 17.000148
*CONN
*I clkload1:I B
*I _206_:CLK B
*I _208_:CLK B
*I _209_:CLK B
*I _212_:CLK B
*I _224_:CLK B
*I _225_:CLK B
*I _230_:CLK B
*I _231_:CLK B
*I _237_:CLK B
*I clkbuf_2_2__f_clk:Z B
*CAP
1 clknet_2_2__leaf_clk:1 16.808610
2 clknet_2_2__leaf_clk:1 clknet_2_3__leaf_clk:1 0.013883
3 clknet_2_2__leaf_clk:1 cmp 0.018511
4 clknet_2_2__leaf_clk:1 eng5:1 0.013883
5 clknet_2_2__leaf_clk:1 eng6:1 0.009255
6 clknet_2_2__leaf_clk:1 eng7:1 0.004628
7 clknet_2_2__leaf_clk:1 eng9:1 0.009255
8 clknet_2_2__leaf_clk:1 ph\[0\]:1 0.004628
9 clknet_2_2__leaf_clk:1 ph\[13\]:1 0.005309
10 clknet_2_2__leaf_clk:1 ph[15] 0.009255
11 clknet_2_2__leaf_clk:1 q1:1 0.004628
12 clknet_2_2__leaf_clk:1 q5:1 0.004628
13 clknet_2_2__leaf_clk:1 q6:1 0.013883
14 clknet_2_2__leaf_clk:1 q7:1 0.009255
15 clknet_2_2__leaf_clk:1 q8:1 0.013883
16 clknet_2_2__leaf_clk:1 q9:1 0.013883
17 clknet_2_2__leaf_clk:1 samp_tp_n 0.013883
18 clknet_2_2__leaf_clk:1 sel_in_n 0.013883
19 clknet_2_2__leaf_clk:1 start 0.015005
*RES
1 clknet_2_2__leaf_clk:1 clknet_2_2__leaf_clk:2 17.208300
2 clknet_2_2__leaf_clk:1 clknet_2_2__leaf_clk:3 16.539900
3 clknet_2_2__leaf_clk:1 clknet_2_2__leaf_clk:4 16.002700
4 clknet_2_2__leaf_clk:1 clknet_2_2__leaf_clk:5 14.511500
5 clknet_2_2__leaf_clk:1 clknet_2_2__leaf_clk:6 13.638600
6 clknet_2_2__leaf_clk:1 clknet_2_2__leaf_clk:7 13.041900
7 clknet_2_2__leaf_clk:1 clknet_2_2__leaf_clk:8 12.839000
8 clknet_2_2__leaf_clk:1 clknet_2_2__leaf_clk:9 41.110300
9 clknet_2_2__leaf_clk:1 clknet_2_2__leaf_clk:10 18.532000
10 clknet_2_2__leaf_clk:1 clknet_2_2__leaf_clk:11 32.457600
11 clknet_2_2__leaf_clk:1 clknet_2_2__leaf_clk:12 12.175000
12 clknet_2_2__leaf_clk:1 clknet_2_2__leaf_clk:13 37.655400
13 clknet_2_2__leaf_clk:1 clknet_2_2__leaf_clk:14 35.816200
14 clknet_2_2__leaf_clk:1 clknet_2_2__leaf_clk:15 14.944900
15 clknet_2_2__leaf_clk:1 clknet_2_2__leaf_clk:16 65.912400
16 clknet_2_2__leaf_clk:1 clknet_2_2__leaf_clk:17 41.904800
17 clknet_2_2__leaf_clk:1 clknet_2_2__leaf_clk:18 31.827100
18 clknet_2_2__leaf_clk:1 clknet_2_2__leaf_clk:19 12.641500
19 clknet_2_2__leaf_clk:1 clknet_2_2__leaf_clk:20 15.358800
20 clknet_2_2__leaf_clk:1 clknet_2_2__leaf_clk:21 17.320600
21 clknet_2_2__leaf_clk:1 clknet_2_2__leaf_clk:22 65.641400
22 clknet_2_2__leaf_clk:1 clknet_2_2__leaf_clk:23 37.811000
23 clknet_2_2__leaf_clk:1 clknet_2_2__leaf_clk:24 35.113800
24 clknet_2_2__leaf_clk:1 clknet_2_2__leaf_clk:25 13.560300
25 clknet_2_2__leaf_clk:1 clknet_2_2__leaf_clk:26 14.350000
26 clknet_2_2__leaf_clk:1 clknet_2_2__leaf_clk:27 13.250800
27 clknet_2_2__leaf_clk:1 clknet_2_2__leaf_clk:28 13.719100
28 clknet_2_2__leaf_clk:1 clknet_2_2__leaf_clk:29 12.962700
29 clknet_2_2__leaf_clk:1 clknet_2_2__leaf_clk:30 16.321200
30 clknet_2_2__leaf_clk:1 clknet_2_2__leaf_clk:31 17.212400
31 clknet_2_2__leaf_clk:1 clknet_2_2__leaf_clk:32 16.095200
32 clknet_2_2__leaf_clk:1 clknet_2_2__leaf_clk:33 16.696900
33 clknet_2_2__leaf_clk:1 clkload1:I 0.000000
34 clknet_2_2__leaf_clk:1 _206_:CLK 0.000000
35 clknet_2_2__leaf_clk:1 _208_:CLK 0.000000
36 clknet_2_2__leaf_clk:1 _209_:CLK 0.000000
37 clknet_2_2__leaf_clk:1 _212_:CLK 0.000000
38 clknet_2_2__leaf_clk:1 _224_:CLK 0.000000
39 clknet_2_2__leaf_clk:1 _225_:CLK 0.000000
40 clknet_2_2__leaf_clk:1 _230_:CLK 0.000000
41 clknet_2_2__leaf_clk:1 _231_:CLK 0.000000
42 clknet_2_2__leaf_clk:1 _237_:CLK 0.000000
43 clknet_2_2__leaf_clk:1 clkbuf_2_2__f_clk:Z 0.000000
*END

*D_NET clknet_2_3__leaf_clk 17.922533
*CONN
*I _205_:CLK B
*I _207_:CLK B
*I _217_:CLK B
*I _218_:CLK B
*I _221_:CLK B
*I _223_:CLK B
*I _232_:CLK B
*I _233_:CLK B
*I _234_:CLK B
*I _235_:CLK B
*I _236_:CLK B
*I _238_:CLK B
*I _245_:CLK B
*I clkbuf_2_3__f_clk:Z B
*CAP
1 clknet_2_3__leaf_clk:1 17.779723
2 clknet_2_3__leaf_clk:1 cmp 0.018511
3 clknet_2_3__leaf_clk:1 eng7:1 0.004628
4 clknet_2_3__leaf_clk:1 eng9:1 0.004628
5 clknet_2_3__leaf_clk:1 ph\[13\]:1 0.030576
6 clknet_2_3__leaf_clk:1 ph\[14\]:1 0.009255
7 clknet_2_3__leaf_clk:1 ph[15] 0.004628
8 clknet_2_3__leaf_clk:1 ph\[4\]:1 0.005796
9 clknet_2_3__leaf_clk:1 ph\[5\]:1 0.013883
10 clknet_2_3__leaf_clk:1 ph\[6\]:1 0.004628
11 clknet_2_3__leaf_clk:1 q5:1 0.009255
12 clknet_2_3__leaf_clk:1 q7:1 0.013883
13 clknet_2_3__leaf_clk:1 start 0.023139
*RES
1 clknet_2_3__leaf_clk:1 clknet_2_3__leaf_clk:2 40.917700
2 clknet_2_3__leaf_clk:1 clknet_2_3__leaf_clk:3 9.403000
3 clknet_2_3__leaf_clk:1 clknet_2_3__leaf_clk:4 15.616900
4 clknet_2_3__leaf_clk:1 clknet_2_3__leaf_clk:5 9.540000
5 clknet_2_3__leaf_clk:1 clknet_2_3__leaf_clk:6 14.231200
6 clknet_2_3__leaf_clk:1 clknet_2_3__leaf_clk:7 25.266000
7 clknet_2_3__leaf_clk:1 clknet_2_3__leaf_clk:8 37.948300
8 clknet_2_3__leaf_clk:1 clknet_2_3__leaf_clk:9 6.339300
9 clknet_2_3__leaf_clk:1 clknet_2_3__leaf_clk:10 38.248500
10 clknet_2_3__leaf_clk:1 clknet_2_3__leaf_clk:11 43.455800
11 clknet_2_3__leaf_clk:1 clknet_2_3__leaf_clk:12 50.754800
12 clknet_2_3__leaf_clk:1 clknet_2_3__leaf_clk:13 41.316500
13 clknet_2_3__leaf_clk:1 clknet_2_3__leaf_clk:14 51.838600
14 clknet_2_3__leaf_clk:1 clknet_2_3__leaf_clk:15 40.701800
15 clknet_2_3__leaf_clk:1 clknet_2_3__leaf_clk:16 14.040200
16 clknet_2_3__leaf_clk:1 clknet_2_3__leaf_clk:17 25.362600
17 clknet_2_3__leaf_clk:1 clknet_2_3__leaf_clk:18 10.723400
18 clknet_2_3__leaf_clk:1 clknet_2_3__leaf_clk:19 16.518400
19 clknet_2_3__leaf_clk:1 clknet_2_3__leaf_clk:20 37.868200
20 clknet_2_3__leaf_clk:1 clknet_2_3__leaf_clk:21 43.411000
21 clknet_2_3__leaf_clk:1 clknet_2_3__leaf_clk:22 41.446500
22 clknet_2_3__leaf_clk:1 clknet_2_3__leaf_clk:23 52.368000
23 clknet_2_3__leaf_clk:1 clknet_2_3__leaf_clk:24 37.692500
24 clknet_2_3__leaf_clk:1 clknet_2_3__leaf_clk:25 50.369300
25 clknet_2_3__leaf_clk:1 clknet_2_3__leaf_clk:26 11.697100
26 clknet_2_3__leaf_clk:1 clknet_2_3__leaf_clk:27 3.998700
27 clknet_2_3__leaf_clk:1 clknet_2_3__leaf_clk:28 1.515900
28 clknet_2_3__leaf_clk:1 clknet_2_3__leaf_clk:29 2.051000
29 clknet_2_3__leaf_clk:1 clknet_2_3__leaf_clk:30 1.097100
30 clknet_2_3__leaf_clk:1 clknet_2_3__leaf_clk:31 2.736600
31 clknet_2_3__leaf_clk:1 clknet_2_3__leaf_clk:32 2.470400
32 clknet_2_3__leaf_clk:1 clknet_2_3__leaf_clk:33 2.135400
33 clknet_2_3__leaf_clk:1 clknet_2_3__leaf_clk:34 3.151800
34 clknet_2_3__leaf_clk:1 clknet_2_3__leaf_clk:35 1.811900
35 clknet_2_3__leaf_clk:1 _205_:CLK 0.000000
36 clknet_2_3__leaf_clk:1 _207_:CLK 0.000000
37 clknet_2_3__leaf_clk:1 _217_:CLK 0.000000
38 clknet_2_3__leaf_clk:1 _218_:CLK 0.000000
39 clknet_2_3__leaf_clk:1 _221_:CLK 0.000000
40 clknet_2_3__leaf_clk:1 _223_:CLK 0.000000
41 clknet_2_3__leaf_clk:1 _232_:CLK 0.000000
42 clknet_2_3__leaf_clk:1 _233_:CLK 0.000000
43 clknet_2_3__leaf_clk:1 _234_:CLK 0.000000
44 clknet_2_3__leaf_clk:1 _235_:CLK 0.000000
45 clknet_2_3__leaf_clk:1 _236_:CLK 0.000000
46 clknet_2_3__leaf_clk:1 _238_:CLK 0.000000
47 clknet_2_3__leaf_clk:1 _245_:CLK 0.000000
48 clknet_2_3__leaf_clk:1 clkbuf_2_3__f_clk:Z 0.000000
*END

*D_NET cmp 21.708730
*CONN
*P cmp B
*I _200_:A2 B
*I _196_:A2 B
*I _194_:A2 B
*I _190_:A2 B
*I _187_:A2 B
*I _185_:A2 B
*I _183_:A2 B
*I _181_:A2 B
*I _177_:A2 B
*I _174_:A2 B
*CAP
1 cmp 21.430038
2 cmp eng1:1 0.004628
3 cmp eng4:1 0.004628
4 cmp eng5:1 0.004628
5 cmp eng6:1 0.004628
6 cmp eng7:1 0.004628
7 cmp eng9:1 0.009255
8 cmp ph\[11\]:1 0.004628
9 cmp ph\[12\]:1 0.027766
10 cmp ph\[13\]:1 0.009255
11 cmp ph\[14\]:1 0.018511
12 cmp ph[15] 0.009476
13 cmp ph\[5\]:1 0.004628
14 cmp ph\[6\]:1 0.004628
15 cmp ph\[8\]:1 0.006357
16 cmp ph\[9\]:1 0.005796
17 cmp q0:1 0.004628
18 cmp q1:1 0.013883
19 cmp q3:1 0.004628
20 cmp q4:1 0.004628
21 cmp q5:1 0.018511
22 cmp q6:1 0.004628
23 cmp q7:1 0.018511
24 cmp q8:1 0.009255
25 cmp q9:1 0.004628
26 cmp rel_n_16n 0.004628
27 cmp rel_n_4n 0.004628
28 cmp sel_hi_n_1n 0.004628
29 cmp sel_hi_n_64n 0.004628
30 cmp sel_hi_n_8n 0.004848
31 cmp sel_in_n 0.004628
32 cmp sel_lo_n_32p 0.004628
33 cmp start 0.039336
*RES
1 cmp cmp:2 30.374900
2 cmp cmp:3 29.552100
3 cmp cmp:4 25.299300
4 cmp cmp:5 34.124900
5 cmp cmp:6 36.040900
6 cmp cmp:7 36.180800
7 cmp cmp:8 38.145100
8 cmp cmp:9 27.139700
9 cmp cmp:10 36.571000
10 cmp cmp:11 29.956100
11 cmp cmp:12 29.558500
12 cmp cmp:13 30.008100
13 cmp cmp:14 36.191900
14 cmp cmp:15 25.365000
15 cmp cmp:16 36.518200
16 cmp cmp:17 38.155000
17 cmp cmp:18 27.243100
18 cmp cmp:19 36.190100
19 cmp cmp:20 34.168000
20 cmp cmp:21 30.491500
21 cmp _200_:A2 0.000000
22 cmp _196_:A2 0.000000
23 cmp _194_:A2 0.000000
24 cmp _190_:A2 0.000000
25 cmp _187_:A2 0.000000
26 cmp _185_:A2 0.000000
27 cmp _183_:A2 0.000000
28 cmp _181_:A2 0.000000
29 cmp _177_:A2 0.000000
30 cmp _174_:A2 0.000000
*END

*D_NET eng1 9.151894
*CONN
*I _229_:Q B
*I _167_:A2 B
*I _155_:A1 B
*I _153_:A1 B
*I _079_:I B
*CAP
1 eng1:1 8.896526
2 eng1:1 eng2:1 0.004628
3 eng1:1 eng3:1 0.004628
4 eng1:1 eng4:1 0.004628
5 eng1:1 eng6:1 0.009255
6 eng1:1 eng7:1 0.004628
7 eng1:1 eng8:1 0.004628
8 eng1:1 mode 0.018511
9 eng1:1 q1:1 0.023139
10 eng1:1 q2:1 0.004628
11 eng1:1 q3:1 0.004628
12 eng1:1 q4:1 0.004628
13 eng1:1 q6:1 0.004628
14 eng1:1 rel_n_1p 0.014544
15 eng1:1 rel_n_4n 0.004628
16 eng1:1 rel_n_4p 0.004628
17 eng1:1 rel_n_64n 0.004628
18 eng1:1 sel_hi_n_128p 0.004628
19 eng1:1 sel_hi_n_16n 0.004628
20 eng1:1 sel_hi_n_16p 0.004628
21 eng1:1 sel_hi_n_1n 0.004628
22 eng1:1 sel_hi_n_1p 0.009255
23 eng1:1 sel_hi_n_256n 0.004628
24 eng1:1 sel_hi_n_256p 0.004628
25 eng1:1 sel_hi_n_2p 0.009255
26 eng1:1 sel_hi_n_32p 0.009255
27 eng1:1 sel_hi_n_4n 0.009255
28 eng1:1 sel_hi_n_64n 0.004628
29 eng1:1 sel_hi_n_64p 0.004628
30 eng1:1 sel_in_n 0.018511
31 eng1:1 sel_lo_n_128p 0.004805
32 eng1:1 sel_lo_n_16n 0.004628
33 eng1:1 sel_lo_n_1p 0.004628
34 eng1:1 sel_lo_n_256p 0.004628
35 eng1:1 sel_lo_n_32n 0.004628
36 eng1:1 sel_lo_n_32p 0.004628
37 eng1:1 sel_lo_n_8p 0.009255
38 eng1:1 start 0.004628
*RES
1 eng1:1 eng1:2 5.955600
2 eng1:1 eng1:3 43.212500
3 eng1:1 eng1:4 5.844800
4 eng1:1 eng1:5 24.067400
5 eng1:1 eng1:6 32.299500
6 eng1:1 eng1:7 29.624200
7 eng1:1 eng1:8 29.848400
8 eng1:1 eng1:9 43.673100
9 eng1:1 eng1:10 23.713600
10 eng1:1 eng1:11 31.648600
11 eng1:1 _229_:Q 0.000000
12 eng1:1 _167_:A2 0.000000
13 eng1:1 _155_:A1 0.000000
14 eng1:1 _153_:A1 0.000000
15 eng1:1 _079_:I 0.000000
*END

*D_NET eng2 7.361430
*CONN
*I _228_:Q B
*I _143_:A2 B
*I _135_:A1 B
*I _134_:A1 B
*I _077_:I B
*CAP
1 eng2:1 7.159977
2 eng2:1 eng3:1 0.009255
3 eng2:1 eng4:1 0.009255
4 eng2:1 eng6:1 0.005188
5 eng2:1 eng7:1 0.013169
6 eng2:1 eng8:1 0.003913
7 eng2:1 mode 0.013883
8 eng2:1 ph[15] 0.004628
9 eng2:1 q2:1 0.006115
10 eng2:1 q3:1 0.004628
11 eng2:1 q4:1 0.018511
12 eng2:1 rel_n_256n 0.004628
13 eng2:1 rel_n_2n 0.004628
14 eng2:1 rel_n_2p 0.001487
15 eng2:1 rel_n_32n 0.004628
16 eng2:1 rel_n_64p 0.000351
17 eng2:1 sel_hi_n_128p 0.004628
18 eng2:1 sel_hi_n_16p 0.004628
19 eng2:1 sel_hi_n_1p 0.004628
20 eng2:1 sel_hi_n_256p 0.004628
21 eng2:1 sel_hi_n_2n 0.004628
22 eng2:1 sel_hi_n_2p 0.004628
23 eng2:1 sel_hi_n_4n 0.004628
24 eng2:1 sel_hi_n_4p 0.004628
25 eng2:1 sel_hi_n_64p 0.009255
26 eng2:1 sel_in_n 0.018511
27 eng2:1 sel_lo_n_128n 0.004628
28 eng2:1 sel_lo_n_128p 0.004628
29 eng2:1 sel_lo_n_16n 0.004628
30 eng2:1 sel_lo_n_256n 0.004628
31 eng2:1 sel_lo_n_8n 0.004628
32 eng2:1 sel_lo_n_8p 0.004628
33 eng2:1 start 0.004628
*RES
1 eng2:1 eng2:2 25.316200
2 eng2:1 eng2:3 9.165500
3 eng2:1 eng2:4 24.925900
4 eng2:1 eng2:5 31.073600
5 eng2:1 eng2:6 33.998100
6 eng2:1 eng2:7 31.484200
7 eng2:1 eng2:8 31.118300
8 eng2:1 eng2:9 8.956500
9 eng2:1 eng2:10 30.993700
10 eng2:1 eng2:11 34.341800
11 eng2:1 _228_:Q 0.000000
12 eng2:1 _143_:A2 0.000000
13 eng2:1 _135_:A1 0.000000
14 eng2:1 _134_:A1 0.000000
15 eng2:1 _077_:I 0.000000
*END

*D_NET eng3 8.593259
*CONN
*I _227_:Q B
*I _096_:A1 B
*I _095_:A1 B
*I _094_:A1 B
*I _065_:I B
*CAP
1 eng3:1 8.304143
2 eng3:1 eng4:1 0.009255
3 eng3:1 eng6:1 0.004628
4 eng3:1 eng7:1 0.013883
5 eng3:1 eng8:1 0.004628
6 eng3:1 mode 0.018676
7 eng3:1 ph[15] 0.004628
8 eng3:1 q1:1 0.004628
9 eng3:1 q2:1 0.004628
10 eng3:1 q3:1 0.005643
11 eng3:1 q4:1 0.004628
12 eng3:1 q6:1 0.004628
13 eng3:1 rel_n_256n 0.004628
14 eng3:1 rel_n_2n 0.004628
15 eng3:1 rel_n_32n 0.004628
16 eng3:1 rel_n_4n 0.005637
17 eng3:1 rel_n_64n 0.004628
18 eng3:1 sel_hi_n_128p 0.004628
19 eng3:1 sel_hi_n_16n 0.004628
20 eng3:1 sel_hi_n_16p 0.004628
21 eng3:1 sel_hi_n_1p 0.004628
22 eng3:1 sel_hi_n_256n 0.004628
23 eng3:1 sel_hi_n_256p 0.004628
24 eng3:1 sel_hi_n_2n 0.013883
25 eng3:1 sel_hi_n_2p 0.004628
26 eng3:1 sel_hi_n_4n 0.004628
27 eng3:1 sel_hi_n_4p 0.004628
28 eng3:1 sel_hi_n_64n 0.004628
29 eng3:1 sel_hi_n_64p 0.013883
30 eng3:1 sel_hi_n_8n 0.018511
31 eng3:1 sel_in_n 0.027766
32 eng3:1 sel_lo_n_128n 0.004628
33 eng3:1 sel_lo_n_128p 0.004628
34 eng3:1 sel_lo_n_16n 0.004628
35 eng3:1 sel_lo_n_1p 0.004628
36 eng3:1 sel_lo_n_256n 0.004628
37 eng3:1 sel_lo_n_256p 0.004628
38 eng3:1 sel_lo_n_32p 0.004628
39 eng3:1 sel_lo_n_8n 0.023139
40 eng3:1 sel_lo_n_8p 0.004628
41 eng3:1 start 0.004628
*RES
1 eng3:1 eng3:2 39.331200
2 eng3:1 eng3:3 13.382600
3 eng3:1 eng3:4 39.408000
4 eng3:1 eng3:5 12.912700
5 eng3:1 eng3:6 27.336600
6 eng3:1 eng3:7 27.923800
7 eng3:1 eng3:8 26.077100
8 eng3:1 eng3:9 25.982000
9 eng3:1 eng3:10 27.288200
10 eng3:1 eng3:11 27.780800
11 eng3:1 _227_:Q 0.000000
12 eng3:1 _096_:A1 0.000000
13 eng3:1 _095_:A1 0.000000
14 eng3:1 _094_:A1 0.000000
15 eng3:1 _065_:I 0.000000
*END

*D_NET eng4 10.313894
*CONN
*I _226_:Q B
*I _102_:A2 B
*I _101_:A1 B
*I _097_:A2 B
*I _071_:I B
*CAP
1 eng4:1 9.974675
2 eng4:1 eng6:1 0.004628
3 eng4:1 eng8:1 0.004628
4 eng4:1 mode 0.041649
5 eng4:1 ph[15] 0.004628
6 eng4:1 q1:1 0.004628
7 eng4:1 q2:1 0.009255
8 eng4:1 q3:1 0.009255
9 eng4:1 q4:1 0.004628
10 eng4:1 q6:1 0.004628
11 eng4:1 rel_n_16n 0.004628
12 eng4:1 rel_n_1p 0.004628
13 eng4:1 rel_n_256n 0.004628
14 eng4:1 rel_n_256p 0.004628
15 eng4:1 rel_n_2n 0.004628
16 eng4:1 rel_n_2p 0.004628
17 eng4:1 rel_n_32n 0.004628
18 eng4:1 rel_n_4n 0.004628
19 eng4:1 rel_n_4p 0.004628
20 eng4:1 rel_n_64n 0.004628
21 eng4:1 rel_n_64p 0.004628
22 eng4:1 rel_n_8p 0.009917
23 eng4:1 samp_tp_n 0.009255
24 eng4:1 sel_hi_n_128p 0.004628
25 eng4:1 sel_hi_n_16n 0.004628
26 eng4:1 sel_hi_n_16p 0.004628
27 eng4:1 sel_hi_n_1n 0.009255
28 eng4:1 sel_hi_n_1p 0.004628
29 eng4:1 sel_hi_n_256n 0.004628
30 eng4:1 sel_hi_n_256p 0.004628
31 eng4:1 sel_hi_n_2n 0.009255
32 eng4:1 sel_hi_n_2p 0.004628
33 eng4:1 sel_hi_n_32p 0.009255
34 eng4:1 sel_hi_n_4n 0.004628
35 eng4:1 sel_hi_n_4p 0.004628
36 eng4:1 sel_hi_n_64n 0.004628
37 eng4:1 sel_hi_n_64p 0.009255
38 eng4:1 sel_hi_n_8p 0.004628
39 eng4:1 sel_in_n 0.023304
40 eng4:1 sel_lo_n_128n 0.004628
41 eng4:1 sel_lo_n_128p 0.004628
42 eng4:1 sel_lo_n_16n 0.004628
43 eng4:1 sel_lo_n_16p 0.004628
44 eng4:1 sel_lo_n_1n 0.005188
45 eng4:1 sel_lo_n_1p 0.004628
46 eng4:1 sel_lo_n_256n 0.004628
47 eng4:1 sel_lo_n_256p 0.004628
48 eng4:1 sel_lo_n_32n 0.004628
49 eng4:1 sel_lo_n_32p 0.004628
50 eng4:1 sel_lo_n_4n 0.004628
51 eng4:1 sel_lo_n_64p 0.004628
52 eng4:1 sel_lo_n_8n 0.004628
53 eng4:1 sel_lo_n_8p 0.004628
54 eng4:1 start 0.004628
*RES
1 eng4:1 eng4:2 9.891700
2 eng4:1 eng4:3 7.964700
3 eng4:1 eng4:4 10.674000
4 eng4:1 eng4:5 9.939300
5 eng4:1 eng4:6 60.216900
6 eng4:1 eng4:7 30.943200
7 eng4:1 eng4:8 26.989200
8 eng4:1 eng4:9 26.873000
9 eng4:1 eng4:10 60.099800
10 eng4:1 eng4:11 31.800000
11 eng4:1 _226_:Q 0.000000
12 eng4:1 _102_:A2 0.000000
13 eng4:1 _101_:A1 0.000000
14 eng4:1 _097_:A2 0.000000
15 eng4:1 _071_:I 0.000000
*END

*D_NET eng5 7.898935
*CONN
*I _225_:Q B
*I _108_:A2 B
*I _107_:A1 B
*I _103_:A2 B
*I _072_:I B
*CAP
1 eng5:1 7.744384
2 eng5:1 eng7:1 0.004628
3 eng5:1 eng9:1 0.023139
4 eng5:1 mode 0.001009
5 eng5:1 ph[15] 0.009255
6 eng5:1 q1:1 0.009255
7 eng5:1 q5:1 0.013883
8 eng5:1 q6:1 0.009255
9 eng5:1 q7:1 0.018511
10 eng5:1 q8:1 0.013883
11 eng5:1 q9:1 0.013883
12 eng5:1 rel_n_16n 0.023966
13 eng5:1 sel_hi_n_16p 0.004628
14 eng5:1 sel_in_n 0.004628
15 eng5:1 sel_lo_n_32p 0.004628
*RES
1 eng5:1 eng5:2 11.289900
2 eng5:1 eng5:3 37.877900
3 eng5:1 eng5:4 37.177500
4 eng5:1 eng5:5 30.011900
5 eng5:1 eng5:6 36.833800
6 eng5:1 eng5:7 18.276500
7 eng5:1 eng5:8 15.225400
8 eng5:1 eng5:9 13.176500
9 eng5:1 eng5:10 27.953700
10 eng5:1 eng5:11 35.586200
11 eng5:1 _225_:Q 0.000000
12 eng5:1 _108_:A2 0.000000
13 eng5:1 _107_:A1 0.000000
14 eng5:1 _103_:A2 0.000000
15 eng5:1 _072_:I 0.000000
*END

*D_NET eng6 9.168685
*CONN
*I _224_:Q B
*I _114_:A2 B
*I _113_:A1 B
*I _109_:A2 B
*I _073_:I B
*CAP
1 eng6:1 8.862403
2 eng6:1 eng8:1 0.004628
3 eng6:1 mode 0.027766
4 eng6:1 ph[15] 0.004628
5 eng6:1 q1:1 0.004628
6 eng6:1 q6:1 0.013883
7 eng6:1 rel_n_128p 0.000331
8 eng6:1 rel_n_16n 0.004628
9 eng6:1 rel_n_16p 0.004628
10 eng6:1 rel_n_1p 0.004628
11 eng6:1 rel_n_256n 0.004628
12 eng6:1 rel_n_256p 0.004628
13 eng6:1 rel_n_2n 0.004628
14 eng6:1 rel_n_2p 0.004628
15 eng6:1 rel_n_32n 0.004628
16 eng6:1 rel_n_32p 0.000516
17 eng6:1 rel_n_4n 0.004628
18 eng6:1 rel_n_4p 0.004628
19 eng6:1 rel_n_64n 0.004628
20 eng6:1 rel_n_64p 0.013883
21 eng6:1 rel_n_8p 0.004628
22 eng6:1 samp_tp_n 0.009255
23 eng6:1 sel_hi_n_128n 0.004628
24 eng6:1 sel_hi_n_16n 0.004628
25 eng6:1 sel_hi_n_1n 0.009255
26 eng6:1 sel_hi_n_1p 0.009255
27 eng6:1 sel_hi_n_256n 0.004628
28 eng6:1 sel_hi_n_2n 0.009255
29 eng6:1 sel_hi_n_2p 0.004628
30 eng6:1 sel_hi_n_32p 0.009255
31 eng6:1 sel_hi_n_4n 0.004628
32 eng6:1 sel_hi_n_4p 0.004628
33 eng6:1 sel_hi_n_64n 0.004628
34 eng6:1 sel_hi_n_64p 0.009255
35 eng6:1 sel_hi_n_8n 0.004628
36 eng6:1 sel_in_n 0.050905
37 eng6:1 sel_lo_n_16p 0.004628
38 eng6:1 sel_lo_n_1p 0.004628
39 eng6:1 sel_lo_n_256p 0.004628
40 eng6:1 sel_lo_n_32n 0.004628
41 eng6:1 sel_lo_n_32p 0.004628
42 eng6:1 sel_lo_n_4n 0.004628
43 eng6:1 sel_lo_n_64p 0.004628
44 eng6:1 sel_lo_n_8p 0.004628
*RES
1 eng6:1 eng6:2 34.615200
2 eng6:1 eng6:3 5.477700
3 eng6:1 eng6:4 4.444600
4 eng6:1 eng6:5 28.485200
5 eng6:1 eng6:6 40.595200
6 eng6:1 eng6:7 26.160600
7 eng6:1 eng6:8 26.390100
8 eng6:1 eng6:9 34.230600
9 eng6:1 eng6:10 28.664500
10 eng6:1 eng6:11 40.791000
11 eng6:1 _224_:Q 0.000000
12 eng6:1 _114_:A2 0.000000
13 eng6:1 _113_:A1 0.000000
14 eng6:1 _109_:A2 0.000000
15 eng6:1 _073_:I 0.000000
*END

*D_NET eng7 9.223248
*CONN
*I _223_:Q B
*I _120_:A2 B
*I _119_:A1 B
*I _115_:A2 B
*I _074_:I B
*CAP
1 eng7:1 8.938564
2 eng7:1 eng8:1 0.004628
3 eng7:1 eng9:1 0.004628
4 eng7:1 mode 0.004628
5 eng7:1 ph\[13\]:1 0.032394
6 eng7:1 ph[15] 0.009255
7 eng7:1 ph\[6\]:1 0.006280
8 eng7:1 q1:1 0.004628
9 eng7:1 q5:1 0.004628
10 eng7:1 q6:1 0.019072
11 eng7:1 q7:1 0.004628
12 eng7:1 q8:1 0.013883
13 eng7:1 q9:1 0.004628
14 eng7:1 rel_n_16n 0.009255
15 eng7:1 rel_n_64n 0.001499
16 eng7:1 rel_n_64p 0.007933
17 eng7:1 sel_hi_n_128n 0.004628
18 eng7:1 sel_hi_n_16n 0.018511
19 eng7:1 sel_hi_n_256n 0.004628
20 eng7:1 sel_hi_n_64p 0.004628
21 eng7:1 sel_hi_n_8n 0.004628
22 eng7:1 sel_in_n 0.013883
23 eng7:1 sel_lo_n_16p 0.004628
24 eng7:1 sel_lo_n_1p 0.004628
25 eng7:1 sel_lo_n_256p 0.004628
26 eng7:1 sel_lo_n_32p 0.004628
27 eng7:1 sel_lo_n_4n 0.032394
28 eng7:1 sel_lo_n_64p 0.004628
29 eng7:1 start 0.046277
*RES
1 eng7:1 eng7:2 14.324100
2 eng7:1 eng7:3 21.027000
3 eng7:1 eng7:4 20.750500
4 eng7:1 eng7:5 32.634800
5 eng7:1 eng7:6 44.190900
6 eng7:1 eng7:7 23.981300
7 eng7:1 eng7:8 24.229500
8 eng7:1 eng7:9 13.066000
9 eng7:1 eng7:10 32.134500
10 eng7:1 eng7:11 43.338400
11 eng7:1 _223_:Q 0.000000
12 eng7:1 _120_:A2 0.000000
13 eng7:1 _119_:A1 0.000000
14 eng7:1 _115_:A2 0.000000
15 eng7:1 _074_:I 0.000000
*END

*D_NET eng8 7.179132
*CONN
*I _222_:Q B
*I _126_:A2 B
*I _125_:A1 B
*I _121_:A2 B
*I _075_:I B
*CAP
1 eng8:1 7.047444
2 eng8:1 eng9:1 0.004628
3 eng8:1 mode 0.009816
4 eng8:1 ph\[14\]:1 0.001653
5 eng8:1 ph[15] 0.004628
6 eng8:1 q1:1 0.009255
7 eng8:1 q5:1 0.009255
8 eng8:1 q8:1 0.013883
9 eng8:1 q9:1 0.004628
10 eng8:1 rel_n_128p 0.012655
11 eng8:1 rel_n_2p 0.004929
12 eng8:1 rel_n_64p 0.004628
13 eng8:1 sel_hi_n_16p 0.009255
14 eng8:1 sel_hi_n_2p 0.005454
15 eng8:1 sel_hi_n_4n 0.009255
16 eng8:1 sel_hi_n_64p 0.013883
17 eng8:1 sel_in_n 0.009255
18 eng8:1 sel_lo_n_4n 0.004628
*RES
1 eng8:1 eng8:2 28.107400
2 eng8:1 eng8:3 27.212400
3 eng8:1 eng8:4 17.259000
4 eng8:1 eng8:5 27.799900
5 eng8:1 eng8:6 29.963100
6 eng8:1 eng8:7 23.266300
7 eng8:1 eng8:8 20.669300
8 eng8:1 eng8:9 21.840300
9 eng8:1 eng8:10 30.773500
10 eng8:1 eng8:11 33.233800
11 eng8:1 _222_:Q 0.000000
12 eng8:1 _126_:A2 0.000000
13 eng8:1 _125_:A1 0.000000
14 eng8:1 _121_:A2 0.000000
15 eng8:1 _075_:I 0.000000
*END

*D_NET eng9 9.097325
*CONN
*I _221_:Q B
*I _133_:A2 B
*I _132_:A1 B
*I _128_:A2 B
*I _076_:I B
*CAP
1 eng9:1 8.952343
2 eng9:1 ph\[13\]:1 0.009255
3 eng9:1 ph[15] 0.004628
4 eng9:1 q1:1 0.004628
5 eng9:1 q2:1 0.009255
6 eng9:1 q5:1 0.023139
7 eng9:1 q6:1 0.004628
8 eng9:1 q7:1 0.013883
9 eng9:1 q8:1 0.004628
10 eng9:1 q9:1 0.009255
11 eng9:1 sel_hi_n_16p 0.004628
12 eng9:1 sel_hi_n_256n 0.004628
13 eng9:1 sel_hi_n_256p 0.009255
14 eng9:1 sel_hi_n_4n 0.004628
15 eng9:1 sel_hi_n_64n 0.004628
16 eng9:1 sel_in_n 0.010778
17 eng9:1 sel_lo_n_256p 0.004628
18 eng9:1 sel_lo_n_32p 0.009255
19 eng9:1 sel_lo_n_8p 0.009255
*RES
1 eng9:1 eng9:2 31.915000
2 eng9:1 eng9:3 32.059000
3 eng9:1 eng9:4 31.620800
4 eng9:1 eng9:5 16.462100
5 eng9:1 eng9:6 31.929800
6 eng9:1 eng9:7 22.567200
7 eng9:1 eng9:8 23.157400
8 eng9:1 eng9:9 32.052700
9 eng9:1 eng9:10 14.944600
10 eng9:1 eng9:11 33.035300
11 eng9:1 _221_:Q 0.000000
12 eng9:1 _133_:A2 0.000000
13 eng9:1 _132_:A1 0.000000
14 eng9:1 _128_:A2 0.000000
15 eng9:1 _076_:I 0.000000
*END

*D_NET mode 21.382033
*CONN
*P mode B
*I _167_:A1 B
*I _160_:A1 B
*I _150_:A1 B
*I _143_:A1 B
*I _133_:A1 B
*I _129_:A1 B
*I _127_:A1 B
*I _126_:A1 B
*I _122_:A1 B
*I _120_:A1 B
*I _116_:A1 B
*I _114_:A1 B
*I _110_:A1 B
*I _108_:A1 B
*I _104_:A1 B
*I _102_:A1 B
*I _098_:A1 B
*I _095_:A2 B
*I _066_:I B
*CAP
1 mode 20.989142
2 mode ph[15] 0.004628
3 mode q1:1 0.005796
4 mode q2:1 0.018511
5 mode q3:1 0.037022
6 mode q6:1 0.004628
7 mode rel_n_16n 0.009917
8 mode rel_n_1n 0.000184
9 mode rel_n_1p 0.000331
10 mode rel_n_256n 0.004628
11 mode rel_n_2n 0.010926
12 mode rel_n_2p 0.004628
13 mode rel_n_32n 0.004628
14 mode rel_n_4n 0.002160
15 mode rel_n_4p 0.000331
16 mode rel_n_64n 0.004628
17 mode rel_n_64p 0.009255
18 mode sel_hi_n_128p 0.004628
19 mode sel_hi_n_16n 0.004628
20 mode sel_hi_n_16p 0.009255
21 mode sel_hi_n_1n 0.004628
22 mode sel_hi_n_1p 0.004628
23 mode sel_hi_n_256n 0.004628
24 mode sel_hi_n_256p 0.015205
25 mode sel_hi_n_2n 0.018511
26 mode sel_hi_n_2p 0.004628
27 mode sel_hi_n_32p 0.004628
28 mode sel_hi_n_4n 0.004628
29 mode sel_hi_n_4p 0.019290
30 mode sel_hi_n_64n 0.013883
31 mode sel_hi_n_64p 0.027766
32 mode sel_hi_n_8n 0.004628
33 mode sel_hi_n_8p 0.018511
34 mode sel_in_n 0.041827
35 mode sel_lo_n_128n 0.004628
36 mode sel_lo_n_128p 0.004628
37 mode sel_lo_n_16n 0.004628
38 mode sel_lo_n_1n 0.004628
39 mode sel_lo_n_1p 0.004628
40 mode sel_lo_n_256n 0.009255
41 mode sel_lo_n_256p 0.004628
42 mode sel_lo_n_32p 0.004628
43 mode sel_lo_n_4n 0.004628
44 mode sel_lo_n_8n 0.004628
45 mode sel_lo_n_8p 0.009255
46 mode start 0.004628
*RES
1 mode mode:2 21.337600
2 mode mode:3 47.553300
3 mode mode:4 19.775500
4 mode mode:5 12.194100
5 mode mode:6 39.093300
6 mode mode:7 35.239800
7 mode mode:8 47.009100
8 mode mode:9 47.931700
9 mode mode:10 40.714100
10 mode mode:11 4.585200
11 mode mode:12 23.562400
12 mode mode:13 26.591500
13 mode mode:14 45.906900
14 mode mode:15 45.256900
15 mode mode:16 15.022600
16 mode mode:17 39.262400
17 mode mode:18 58.013500
18 mode mode:19 60.731100
19 mode mode:20 9.165100
20 mode mode:21 12.373700
21 mode mode:22 6.072000
22 mode mode:23 53.906600
23 mode mode:24 3.175400
24 mode mode:25 40.036800
25 mode mode:26 45.228200
26 mode mode:27 46.868400
27 mode mode:28 46.205400
28 mode mode:29 26.308900
29 mode mode:30 35.005600
30 mode mode:31 24.872700
31 mode mode:32 10.357000
32 mode mode:33 12.807600
33 mode mode:34 9.887200
34 mode mode:35 6.504500
35 mode mode:36 61.145800
36 mode mode:37 57.559000
37 mode mode:38 13.613400
38 mode mode:39 53.932500
39 mode _167_:A1 0.000000
40 mode _160_:A1 0.000000
41 mode _150_:A1 0.000000
42 mode _143_:A1 0.000000
43 mode _133_:A1 0.000000
44 mode _129_:A1 0.000000
45 mode _127_:A1 0.000000
46 mode _126_:A1 0.000000
47 mode _122_:A1 0.000000
48 mode _120_:A1 0.000000
49 mode _116_:A1 0.000000
50 mode _114_:A1 0.000000
51 mode _110_:A1 0.000000
52 mode _108_:A1 0.000000
53 mode _104_:A1 0.000000
54 mode _102_:A1 0.000000
55 mode _098_:A1 0.000000
56 mode _095_:A2 0.000000
57 mode _066_:I 0.000000
*END

*D_NET ph\[0\] 3.167087
*CONN
*I _230_:Q B
*I _093_:A2 B
*I _068_:I B
*CAP
1 ph\[0\]:1 3.144562
2 ph\[0\]:1 ph\[2\]:1 0.008642
3 ph\[0\]:1 sel_in_n 0.009255
4 ph\[0\]:1 start 0.004628
*RES
1 ph\[0\]:1 ph\[0\]:2 30.960300
2 ph\[0\]:1 ph\[0\]:3 34.715700
3 ph\[0\]:1 ph\[0\]:4 23.545700
4 ph\[0\]:1 ph\[0\]:5 14.005300
5 ph\[0\]:1 ph\[0\]:6 9.403600
6 ph\[0\]:1 ph\[0\]:7 20.719000
7 ph\[0\]:1 _230_:Q 0.000000
8 ph\[0\]:1 _093_:A2 0.000000
9 ph\[0\]:1 _068_:I 0.000000
*END

*D_NET ph\[10\] 3.497396
*CONN
*I _240_:Q B
*I _200_:A1 B
*I _199_:A2 B
*I _082_:I B
*CAP
1 ph\[10\]:1 3.490968
2 ph\[10\]:1 ph\[11\]:1 0.004628
3 ph\[10\]:1 q3:1 0.001800
*RES
1 ph\[10\]:1 ph\[10\]:2 44.237400
2 ph\[10\]:1 ph\[10\]:3 34.376100
3 ph\[10\]:1 ph\[10\]:4 19.761800
4 ph\[10\]:1 ph\[10\]:5 10.594300
5 ph\[10\]:1 ph\[10\]:6 20.458900
6 ph\[10\]:1 ph\[10\]:7 17.039200
7 ph\[10\]:1 ph\[10\]:8 1.777100
8 ph\[10\]:1 ph\[10\]:9 32.036000
9 ph\[10\]:1 _240_:Q 0.000000
10 ph\[10\]:1 _200_:A1 0.000000
11 ph\[10\]:1 _199_:A2 0.000000
12 ph\[10\]:1 _082_:I 0.000000
*END

*D_NET ph\[11\] 4.515098
*CONN
*I _241_:Q B
*I _181_:A1 B
*I _180_:A2 B
*I _081_:I B
*CAP
1 ph\[11\]:1 4.505842
2 ph\[11\]:1 q3:1 0.004628
3 ph\[11\]:1 start 0.004628
*RES
1 ph\[11\]:1 ph\[11\]:2 35.689100
2 ph\[11\]:1 ph\[11\]:3 29.634600
3 ph\[11\]:1 ph\[11\]:4 46.726000
4 ph\[11\]:1 ph\[11\]:5 40.657700
5 ph\[11\]:1 ph\[11\]:6 9.165800
6 ph\[11\]:1 ph\[11\]:7 4.067700
7 ph\[11\]:1 ph\[11\]:8 4.275700
8 ph\[11\]:1 ph\[11\]:9 14.668400
9 ph\[11\]:1 _241_:Q 0.000000
10 ph\[11\]:1 _181_:A1 0.000000
11 ph\[11\]:1 _180_:A2 0.000000
12 ph\[11\]:1 _081_:I 0.000000
*END

*D_NET ph\[12\] 3.725561
*CONN
*I _242_:Q B
*I _187_:A1 B
*I _186_:A1 B
*I _078_:I B
*CAP
1 ph\[12\]:1 3.711678
2 ph\[12\]:1 q1:1 0.004628
3 ph\[12\]:1 start 0.009255
*RES
1 ph\[12\]:1 ph\[12\]:2 25.689200
2 ph\[12\]:1 ph\[12\]:3 17.442300
3 ph\[12\]:1 ph\[12\]:4 15.574000
4 ph\[12\]:1 ph\[12\]:5 11.666500
5 ph\[12\]:1 ph\[12\]:6 33.272400
6 ph\[12\]:1 ph\[12\]:7 41.825200
7 ph\[12\]:1 ph\[12\]:8 24.118900
8 ph\[12\]:1 ph\[12\]:9 11.653900
9 ph\[12\]:1 _242_:Q 0.000000
10 ph\[12\]:1 _187_:A1 0.000000
11 ph\[12\]:1 _186_:A1 0.000000
12 ph\[12\]:1 _078_:I 0.000000
*END

*D_NET ph\[13\] 19.934305
*CONN
*I _243_:Q B
*I _174_:A1 B
*I _173_:A1 B
*I _146_:B B
*I _145_:B B
*I _144_:B B
*I _142_:B B
*I _141_:B B
*I _140_:B B
*I _139_:B B
*I _137_:B B
*I _136_:B B
*I _080_:I B
*CAP
1 ph\[13\]:1 19.812302
2 ph\[13\]:1 ph\[14\]:1 0.009255
3 ph\[13\]:1 ph[15] 0.013883
4 ph\[13\]:1 q0:1 0.004628
5 ph\[13\]:1 q1:1 0.005637
6 ph\[13\]:1 q2:1 0.009255
7 ph\[13\]:1 q3:1 0.013883
8 ph\[13\]:1 q4:1 0.023139
9 ph\[13\]:1 q5:1 0.004628
10 ph\[13\]:1 q6:1 0.004628
11 ph\[13\]:1 q7:1 0.014556
12 ph\[13\]:1 q8:1 0.004628
13 ph\[13\]:1 q9:1 0.004628
14 ph\[13\]:1 start 0.009255
*RES
1 ph\[13\]:1 ph\[13\]:2 34.568100
2 ph\[13\]:1 ph\[13\]:3 41.632200
3 ph\[13\]:1 ph\[13\]:4 23.567600
4 ph\[13\]:1 ph\[13\]:5 26.332300
5 ph\[13\]:1 ph\[13\]:6 26.353700
6 ph\[13\]:1 ph\[13\]:7 24.450700
7 ph\[13\]:1 ph\[13\]:8 34.500000
8 ph\[13\]:1 ph\[13\]:9 27.164500
9 ph\[13\]:1 ph\[13\]:10 33.671600
10 ph\[13\]:1 ph\[13\]:11 42.585300
11 ph\[13\]:1 ph\[13\]:12 36.790500
12 ph\[13\]:1 ph\[13\]:13 41.743400
13 ph\[13\]:1 ph\[13\]:14 26.587100
14 ph\[13\]:1 ph\[13\]:15 23.848300
15 ph\[13\]:1 ph\[13\]:16 26.022900
16 ph\[13\]:1 ph\[13\]:17 23.200800
17 ph\[13\]:1 ph\[13\]:18 24.228300
18 ph\[13\]:1 ph\[13\]:19 18.495300
19 ph\[13\]:1 ph\[13\]:20 18.851400
20 ph\[13\]:1 ph\[13\]:21 42.846900
21 ph\[13\]:1 ph\[13\]:22 36.697600
22 ph\[13\]:1 ph\[13\]:23 33.567100
23 ph\[13\]:1 ph\[13\]:24 27.495200
24 ph\[13\]:1 ph\[13\]:25 24.821000
25 ph\[13\]:1 ph\[13\]:26 23.528100
26 ph\[13\]:1 ph\[13\]:27 23.701600
27 ph\[13\]:1 _243_:Q 0.000000
28 ph\[13\]:1 _174_:A1 0.000000
29 ph\[13\]:1 _173_:A1 0.000000
30 ph\[13\]:1 _146_:B 0.000000
31 ph\[13\]:1 _145_:B 0.000000
32 ph\[13\]:1 _144_:B 0.000000
33 ph\[13\]:1 _142_:B 0.000000
34 ph\[13\]:1 _141_:B 0.000000
35 ph\[13\]:1 _140_:B 0.000000
36 ph\[13\]:1 _139_:B 0.000000
37 ph\[13\]:1 _137_:B 0.000000
38 ph\[13\]:1 _136_:B 0.000000
39 ph\[13\]:1 _080_:I 0.000000
*END

*D_NET ph\[14\] 24.598904
*CONN
*I _244_:Q B
*I _198_:S B
*I _197_:S B
*I _192_:S B
*I _191_:S B
*I _188_:S B
*I _179_:S B
*I _178_:S B
*I _175_:S B
*I _172_:S B
*I _171_:S B
*I _089_:I B
*CAP
1 ph\[14\]:1 24.496339
2 ph\[14\]:1 q1:1 0.018511
3 ph\[14\]:1 q2:1 0.006435
4 ph\[14\]:1 q3:1 0.009255
5 ph\[14\]:1 q4:1 0.011075
6 ph\[14\]:1 q5:1 0.006384
7 ph\[14\]:1 q7:1 0.009255
8 ph\[14\]:1 q8:1 0.018511
9 ph\[14\]:1 start 0.023139
*RES
1 ph\[14\]:1 ph\[14\]:2 43.322300
2 ph\[14\]:1 ph\[14\]:3 39.493800
3 ph\[14\]:1 ph\[14\]:4 40.836500
4 ph\[14\]:1 ph\[14\]:5 38.595100
5 ph\[14\]:1 ph\[14\]:6 34.089900
6 ph\[14\]:1 ph\[14\]:7 29.141200
7 ph\[14\]:1 ph\[14\]:8 11.388800
8 ph\[14\]:1 ph\[14\]:9 31.905000
9 ph\[14\]:1 ph\[14\]:10 35.496800
10 ph\[14\]:1 ph\[14\]:11 12.278700
11 ph\[14\]:1 ph\[14\]:12 9.006800
12 ph\[14\]:1 ph\[14\]:13 10.439000
13 ph\[14\]:1 ph\[14\]:14 37.029900
14 ph\[14\]:1 ph\[14\]:15 31.288000
15 ph\[14\]:1 ph\[14\]:16 11.343200
16 ph\[14\]:1 ph\[14\]:17 34.231700
17 ph\[14\]:1 ph\[14\]:18 31.763200
18 ph\[14\]:1 ph\[14\]:19 8.134500
19 ph\[14\]:1 ph\[14\]:20 11.315300
20 ph\[14\]:1 ph\[14\]:21 34.701500
21 ph\[14\]:1 ph\[14\]:22 12.347600
22 ph\[14\]:1 ph\[14\]:23 33.268600
23 ph\[14\]:1 ph\[14\]:24 15.427300
24 ph\[14\]:1 ph\[14\]:25 9.910400
25 ph\[14\]:1 ph\[14\]:26 32.029700
26 ph\[14\]:1 ph\[14\]:27 37.419200
27 ph\[14\]:1 ph\[14\]:28 11.563400
28 ph\[14\]:1 ph\[14\]:29 34.888600
29 ph\[14\]:1 ph\[14\]:30 14.598500
30 ph\[14\]:1 ph\[14\]:31 30.493500
31 ph\[14\]:1 ph\[14\]:32 34.587200
32 ph\[14\]:1 ph\[14\]:33 36.065200
33 ph\[14\]:1 ph\[14\]:34 34.093700
34 ph\[14\]:1 ph\[14\]:35 30.896200
35 ph\[14\]:1 ph\[14\]:36 13.631400
36 ph\[14\]:1 ph\[14\]:37 14.311800
37 ph\[14\]:1 ph\[14\]:38 16.076200
38 ph\[14\]:1 ph\[14\]:39 33.367700
39 ph\[14\]:1 ph\[14\]:40 8.019300
40 ph\[14\]:1 ph\[14\]:41 30.555400
41 ph\[14\]:1 ph\[14\]:42 38.234000
42 ph\[14\]:1 ph\[14\]:43 39.893500
43 ph\[14\]:1 ph\[14\]:44 40.105100
44 ph\[14\]:1 ph\[14\]:45 39.127800
45 ph\[14\]:1 _244_:Q 0.000000
46 ph\[14\]:1 _198_:S 0.000000
47 ph\[14\]:1 _197_:S 0.000000
48 ph\[14\]:1 _192_:S 0.000000
49 ph\[14\]:1 _191_:S 0.000000
50 ph\[14\]:1 _188_:S 0.000000
51 ph\[14\]:1 _179_:S 0.000000
52 ph\[14\]:1 _178_:S 0.000000
53 ph\[14\]:1 _175_:S 0.000000
54 ph\[14\]:1 _172_:S 0.000000
55 ph\[14\]:1 _171_:S 0.000000
56 ph\[14\]:1 _089_:I 0.000000
*END

*D_NET ph\[15\] 7.797649
*CONN
*P ph\[15\] B
*I _245_:Q B
*I _170_:A2 B
*CAP
1 ph[15] 7.700851
2 ph[15] q5:1 0.004628
3 ph[15] q6:1 0.004628
4 ph[15] q7:1 0.004628
5 ph[15] q8:1 0.010082
6 ph[15] q9:1 0.004628
7 ph[15] rel_n_16n 0.004848
8 ph[15] rel_n_64p 0.004628
9 ph[15] sel_hi_n_16n 0.001653
10 ph[15] sel_hi_n_256n 0.004848
11 ph[15] sel_hi_n_4n 0.004848
12 ph[15] sel_hi_n_64p 0.004628
13 ph[15] sel_hi_n_8n 0.004848
14 ph[15] sel_in_n 0.004628
15 ph[15] sel_lo_n_16p 0.004848
16 ph[15] sel_lo_n_1p 0.004848
17 ph[15] sel_lo_n_32p 0.009476
18 ph[15] sel_lo_n_64p 0.004848
19 ph[15] start 0.009255
*RES
1 ph[15] ph\[15\]:2 24.599500
2 ph[15] ph\[15\]:3 21.802800
3 ph[15] ph\[15\]:4 24.393400
4 ph[15] ph\[15\]:5 21.984200
5 ph[15] _245_:Q 0.000000
6 ph[15] _170_:A2 0.000000
*END

*D_NET ph\[1\] 2.915587
*CONN
*I _231_:Q B
*I _093_:A3 B
*I _069_:I B
*CAP
1 ph\[1\]:1 2.894998
2 ph\[1\]:1 ph\[3\]:1 0.011333
3 ph\[1\]:1 sel_in_n 0.004628
4 ph\[1\]:1 start 0.004628
*RES
1 ph\[1\]:1 ph\[1\]:2 29.302400
2 ph\[1\]:1 ph\[1\]:3 22.926300
3 ph\[1\]:1 ph\[1\]:4 16.160100
4 ph\[1\]:1 ph\[1\]:5 16.053800
5 ph\[1\]:1 ph\[1\]:6 14.632800
6 ph\[1\]:1 ph\[1\]:7 33.007200
7 ph\[1\]:1 _231_:Q 0.000000
8 ph\[1\]:1 _093_:A3 0.000000
9 ph\[1\]:1 _069_:I 0.000000
*END

*D_NET ph\[2\] 4.331504
*CONN
*I _232_:Q B
*I _093_:A1 B
*I _067_:I B
*CAP
1 ph\[2\]:1 4.245861
2 ph\[2\]:1 ph\[3\]:1 0.040079
3 ph\[2\]:1 ph\[4\]:1 0.004628
4 ph\[2\]:1 ph\[5\]:1 0.004628
5 ph\[2\]:1 q8:1 0.004628
6 ph\[2\]:1 q9:1 0.008541
7 ph\[2\]:1 sel_in_n 0.004628
8 ph\[2\]:1 start 0.018511
*RES
1 ph\[2\]:1 ph\[2\]:2 16.478500
2 ph\[2\]:1 ph\[2\]:3 11.544500
3 ph\[2\]:1 ph\[2\]:4 36.440300
4 ph\[2\]:1 ph\[2\]:5 22.833100
5 ph\[2\]:1 ph\[2\]:6 18.744100
6 ph\[2\]:1 ph\[2\]:7 32.123600
7 ph\[2\]:1 _232_:Q 0.000000
8 ph\[2\]:1 _093_:A1 0.000000
9 ph\[2\]:1 _067_:I 0.000000
*END

*D_NET ph\[3\] 4.155857
*CONN
*I _233_:Q B
*I _093_:A4 B
*I _070_:I B
*CAP
1 ph\[3\]:1 4.063302
2 ph\[3\]:1 ph\[4\]:1 0.078671
3 ph\[3\]:1 ph\[5\]:1 0.004628
4 ph\[3\]:1 q8:1 0.004628
5 ph\[3\]:1 q9:1 0.004628
*RES
1 ph\[3\]:1 ph\[3\]:2 35.439700
2 ph\[3\]:1 ph\[3\]:3 29.480600
3 ph\[3\]:1 ph\[3\]:4 27.882200
4 ph\[3\]:1 ph\[3\]:5 7.120900
5 ph\[3\]:1 ph\[3\]:6 4.842400
6 ph\[3\]:1 ph\[3\]:7 32.807100
7 ph\[3\]:1 _233_:Q 0.000000
8 ph\[3\]:1 _093_:A4 0.000000
9 ph\[3\]:1 _070_:I 0.000000
*END

*D_NET ph\[4\] 3.775268
*CONN
*I _234_:Q B
*I _196_:A1 B
*I _195_:A2 B
*I _088_:I B
*CAP
1 ph\[4\]:1 3.765658
2 ph\[4\]:1 ph\[5\]:1 0.009610
*RES
1 ph\[4\]:1 ph\[4\]:2 15.999000
2 ph\[4\]:1 ph\[4\]:3 4.514100
3 ph\[4\]:1 ph\[4\]:4 43.237100
4 ph\[4\]:1 ph\[4\]:5 25.765100
5 ph\[4\]:1 ph\[4\]:6 31.117600
6 ph\[4\]:1 ph\[4\]:7 16.439500
7 ph\[4\]:1 ph\[4\]:8 5.015000
8 ph\[4\]:1 ph\[4\]:9 39.724400
9 ph\[4\]:1 _234_:Q 0.000000
10 ph\[4\]:1 _196_:A1 0.000000
11 ph\[4\]:1 _195_:A2 0.000000
12 ph\[4\]:1 _088_:I 0.000000
*END

*D_NET ph\[5\] 5.847701
*CONN
*I _235_:Q B
*I _190_:A1 B
*I _189_:A2 B
*I _087_:I B
*CAP
1 ph\[5\]:1 5.829025
2 ph\[5\]:1 q8:1 0.004793
3 ph\[5\]:1 q9:1 0.004628
4 ph\[5\]:1 start 0.009255
*RES
1 ph\[5\]:1 ph\[5\]:2 11.709200
2 ph\[5\]:1 ph\[5\]:3 27.524600
3 ph\[5\]:1 ph\[5\]:4 32.970200
4 ph\[5\]:1 ph\[5\]:5 19.760200
5 ph\[5\]:1 ph\[5\]:6 22.299400
6 ph\[5\]:1 ph\[5\]:7 10.068400
7 ph\[5\]:1 ph\[5\]:8 32.062700
8 ph\[5\]:1 ph\[5\]:9 34.971700
9 ph\[5\]:1 _235_:Q 0.000000
10 ph\[5\]:1 _190_:A1 0.000000
11 ph\[5\]:1 _189_:A2 0.000000
12 ph\[5\]:1 _087_:I 0.000000
*END

*D_NET ph\[6\] 3.556214
*CONN
*I _236_:Q B
*I _183_:A1 B
*I _182_:A2 B
*I _086_:I B
*CAP
1 ph\[6\]:1 3.537290
2 ph\[6\]:1 q5:1 0.009255
3 ph\[6\]:1 q7:1 0.009669
*RES
1 ph\[6\]:1 ph\[6\]:2 36.733000
2 ph\[6\]:1 ph\[6\]:3 25.378000
3 ph\[6\]:1 ph\[6\]:4 15.591600
4 ph\[6\]:1 ph\[6\]:5 27.715300
5 ph\[6\]:1 ph\[6\]:6 19.155300
6 ph\[6\]:1 ph\[6\]:7 12.309500
7 ph\[6\]:1 ph\[6\]:8 5.186200
8 ph\[6\]:1 ph\[6\]:9 38.507800
9 ph\[6\]:1 _236_:Q 0.000000
10 ph\[6\]:1 _183_:A1 0.000000
11 ph\[6\]:1 _182_:A2 0.000000
12 ph\[6\]:1 _086_:I 0.000000
*END

*D_NET ph\[7\] 3.930937
*CONN
*I _237_:Q B
*I _177_:A1 B
*I _176_:A2 B
*I _085_:I B
*CAP
1 ph\[7\]:1 3.903169
2 ph\[7\]:1 q6:1 0.004628
3 ph\[7\]:1 q8:1 0.004628
4 ph\[7\]:1 q9:1 0.004628
5 ph\[7\]:1 samp_tp_n 0.004628
6 ph\[7\]:1 sel_in_n 0.004628
7 ph\[7\]:1 start 0.004628
*RES
1 ph\[7\]:1 ph\[7\]:2 26.605700
2 ph\[7\]:1 ph\[7\]:3 5.255700
3 ph\[7\]:1 ph\[7\]:4 36.002300
4 ph\[7\]:1 ph\[7\]:5 18.244400
5 ph\[7\]:1 ph\[7\]:6 21.151500
6 ph\[7\]:1 ph\[7\]:7 18.083500
7 ph\[7\]:1 ph\[7\]:8 12.675800
8 ph\[7\]:1 ph\[7\]:9 44.210000
9 ph\[7\]:1 _237_:Q 0.000000
10 ph\[7\]:1 _177_:A1 0.000000
11 ph\[7\]:1 _176_:A2 0.000000
12 ph\[7\]:1 _085_:I 0.000000
*END

*D_NET ph\[8\] 3.775230
*CONN
*I _238_:Q B
*I _185_:A1 B
*I _184_:A2 B
*I _084_:I B
*CAP
1 ph\[8\]:1 3.767173
2 ph\[8\]:1 q5:1 0.003429
3 ph\[8\]:1 q7:1 0.004628
*RES
1 ph\[8\]:1 ph\[8\]:2 18.551800
2 ph\[8\]:1 ph\[8\]:3 7.993700
3 ph\[8\]:1 ph\[8\]:4 29.463000
4 ph\[8\]:1 ph\[8\]:5 33.839900
5 ph\[8\]:1 ph\[8\]:6 33.657800
6 ph\[8\]:1 ph\[8\]:7 28.163600
7 ph\[8\]:1 ph\[8\]:8 8.845500
8 ph\[8\]:1 ph\[8\]:9 21.134300
9 ph\[8\]:1 _238_:Q 0.000000
10 ph\[8\]:1 _185_:A1 0.000000
11 ph\[8\]:1 _184_:A2 0.000000
12 ph\[8\]:1 _084_:I 0.000000
*END

*D_NET ph\[9\] 3.912780
*CONN
*I _239_:Q B
*I _194_:A1 B
*I _193_:A2 B
*I _083_:I B
*CAP
1 ph\[9\]:1 3.908152
2 ph\[9\]:1 start 0.004628
*RES
1 ph\[9\]:1 ph\[9\]:2 19.572200
2 ph\[9\]:1 ph\[9\]:3 26.876100
3 ph\[9\]:1 ph\[9\]:4 5.655300
4 ph\[9\]:1 ph\[9\]:5 33.222500
5 ph\[9\]:1 ph\[9\]:6 25.533800
6 ph\[9\]:1 ph\[9\]:7 18.217700
7 ph\[9\]:1 ph\[9\]:8 11.925100
8 ph\[9\]:1 ph\[9\]:9 41.085900
9 ph\[9\]:1 _239_:Q 0.000000
10 ph\[9\]:1 _194_:A1 0.000000
11 ph\[9\]:1 _193_:A2 0.000000
12 ph\[9\]:1 _083_:I 0.000000
*END

*D_NET q0 3.873029
*CONN
*I _210_:Q B
*I _175_:I1 B
*I _173_:A2 B
*CAP
1 q0:1 3.873029
*RES
1 q0:1 q0:2 35.875400
2 q0:1 q0:3 31.922200
3 q0:1 q0:4 28.789000
4 q0:1 q0:5 7.223900
5 q0:1 q0:6 32.076200
6 q0:1 q0:7 1.561200
7 q0:1 _210_:Q 0.000000
8 q0:1 _175_:I1 0.000000
9 q0:1 _173_:A2 0.000000
*END

*D_NET q1 13.705004
*CONN
*I _201_:Q B
*I _186_:A2 B
*I _178_:I1 B
*I _163_:A3 B
*I _158_:A2 B
*I _155_:A2 B
*CAP
1 q1:1 13.560292
2 q1:1 q2:1 0.013883
3 q1:1 q3:1 0.004628
4 q1:1 q4:1 0.004628
5 q1:1 q5:1 0.009255
6 q1:1 q6:1 0.005206
7 q1:1 q7:1 0.009255
8 q1:1 q8:1 0.013883
9 q1:1 q9:1 0.009255
10 q1:1 sel_hi_n_16n 0.004628
11 q1:1 sel_hi_n_16p 0.009255
12 q1:1 sel_hi_n_256n 0.004628
13 q1:1 sel_hi_n_256p 0.004628
14 q1:1 sel_hi_n_32p 0.011428
15 q1:1 sel_hi_n_4n 0.004628
16 q1:1 sel_in_n 0.005301
17 q1:1 sel_lo_n_1p 0.002456
18 q1:1 sel_lo_n_8p 0.004628
19 q1:1 start 0.023139
*RES
1 q1:1 q1:2 32.154900
2 q1:1 q1:3 31.342900
3 q1:1 q1:4 27.485000
4 q1:1 q1:5 27.935500
5 q1:1 q1:6 9.644300
6 q1:1 q1:7 7.892000
7 q1:1 q1:8 42.128300
8 q1:1 q1:9 27.652300
9 q1:1 q1:10 38.815300
10 q1:1 q1:11 42.433100
11 q1:1 q1:12 28.217100
12 q1:1 q1:13 39.420300
13 q1:1 _201_:Q 0.000000
14 q1:1 _186_:A2 0.000000
15 q1:1 _178_:I1 0.000000
16 q1:1 _163_:A3 0.000000
17 q1:1 _158_:A2 0.000000
18 q1:1 _155_:A2 0.000000
*END

*D_NET q2 10.479635
*CONN
*I _202_:Q B
*I _180_:A1 B
*I _179_:I1 B
*I _147_:A3 B
*I _138_:A2 B
*I _135_:A2 B
*CAP
1 q2:1 10.372345
2 q2:1 q3:1 0.042476
3 q2:1 q4:1 0.009255
4 q2:1 q8:1 0.004628
5 q2:1 q9:1 0.004628
6 q2:1 sel_hi_n_128p 0.004628
7 q2:1 sel_hi_n_16p 0.009255
8 q2:1 sel_hi_n_256p 0.004628
9 q2:1 sel_hi_n_4n 0.004628
10 q2:1 sel_lo_n_128p 0.004628
11 q2:1 sel_lo_n_16n 0.004628
12 q2:1 sel_lo_n_256n 0.004628
13 q2:1 sel_lo_n_2p 0.000024
14 q2:1 sel_lo_n_8p 0.004628
15 q2:1 start 0.004628
*RES
1 q2:1 q2:2 10.840000
2 q2:1 q2:3 38.013300
3 q2:1 q2:4 37.189100
4 q2:1 q2:5 6.139500
5 q2:1 q2:6 41.156400
6 q2:1 q2:7 41.178000
7 q2:1 q2:8 8.550500
8 q2:1 q2:9 39.171700
9 q2:1 q2:10 37.721000
10 q2:1 q2:11 3.711200
11 q2:1 q2:12 39.220400
12 q2:1 q2:13 37.097000
13 q2:1 _202_:Q 0.000000
14 q2:1 _180_:A1 0.000000
15 q2:1 _179_:I1 0.000000
16 q2:1 _147_:A3 0.000000
17 q2:1 _138_:A2 0.000000
18 q2:1 _135_:A2 0.000000
*END

*D_NET q3 10.781076
*CONN
*I _203_:Q B
*I _199_:A1 B
*I _188_:I1 B
*I _096_:A2 B
*I _091_:A3 B
*I _090_:A2 B
*CAP
1 q3:1 10.706739
2 q3:1 q4:1 0.004628
3 q3:1 sel_hi_n_16p 0.004628
4 q3:1 sel_hi_n_4n 0.016964
5 q3:1 sel_lo_n_128p 0.018511
6 q3:1 sel_lo_n_16n 0.013033
7 q3:1 sel_lo_n_256n 0.006986
8 q3:1 sel_lo_n_2p 0.000331
9 q3:1 sel_lo_n_8p 0.004628
10 q3:1 start 0.004628
*RES
1 q3:1 q3:2 19.736800
2 q3:1 q3:3 39.257200
3 q3:1 q3:4 41.819100
4 q3:1 q3:5 14.499700
5 q3:1 q3:6 20.224800
6 q3:1 q3:7 19.644400
7 q3:1 q3:8 39.607300
8 q3:1 q3:9 35.170500
9 q3:1 q3:10 14.628200
10 q3:1 q3:11 21.866700
11 q3:1 q3:12 39.934900
12 q3:1 q3:13 34.214700
13 q3:1 _203_:Q 0.000000
14 q3:1 _199_:A1 0.000000
15 q3:1 _188_:I1 0.000000
16 q3:1 _096_:A2 0.000000
17 q3:1 _091_:A3 0.000000
18 q3:1 _090_:A2 0.000000
*END

*D_NET q4 10.012645
*CONN
*I _204_:Q B
*I _193_:A1 B
*I _191_:I1 B
*I _100_:A2 B
*I _099_:A1 B
*I _097_:A1 B
*CAP
1 q4:1 9.972615
2 q4:1 sel_hi_n_2n 0.004628
3 q4:1 sel_hi_n_8n 0.015893
4 q4:1 sel_lo_n_8p 0.004799
5 q4:1 start 0.014710
*RES
1 q4:1 q4:2 29.058500
2 q4:1 q4:3 25.232100
3 q4:1 q4:4 23.916000
4 q4:1 q4:5 20.106500
5 q4:1 q4:6 27.184000
6 q4:1 q4:7 17.011300
7 q4:1 q4:8 41.477100
8 q4:1 q4:9 37.516200
9 q4:1 q4:10 21.949900
10 q4:1 q4:11 15.630500
11 q4:1 q4:12 42.253300
12 q4:1 q4:13 36.118200
13 q4:1 _204_:Q 0.000000
14 q4:1 _193_:A1 0.000000
15 q4:1 _191_:I1 0.000000
16 q4:1 _100_:A2 0.000000
17 q4:1 _099_:A1 0.000000
18 q4:1 _097_:A1 0.000000
*END

*D_NET q5 12.113621
*CONN
*I _205_:Q B
*I _192_:I1 B
*I _184_:A1 B
*I _106_:A2 B
*I _105_:A1 B
*I _103_:A1 B
*CAP
1 q5:1 12.020406
2 q5:1 q6:1 0.004628
3 q5:1 q7:1 0.018511
4 q5:1 q8:1 0.009255
5 q5:1 q9:1 0.013883
6 q5:1 sel_hi_n_16p 0.009255
7 q5:1 sel_hi_n_256n 0.004628
8 q5:1 sel_lo_n_16p 0.005289
9 q5:1 sel_lo_n_256p 0.004628
10 q5:1 sel_lo_n_32p 0.004628
11 q5:1 sel_lo_n_64p 0.009255
12 q5:1 start 0.009255
*RES
1 q5:1 q5:2 40.162400
2 q5:1 q5:3 41.195500
3 q5:1 q5:4 25.369400
4 q5:1 q5:5 16.603000
5 q5:1 q5:6 26.183100
6 q5:1 q5:7 8.173100
7 q5:1 q5:8 36.097900
8 q5:1 q5:9 44.222700
9 q5:1 q5:10 17.842300
10 q5:1 q5:11 36.865400
11 q5:1 q5:12 10.484400
12 q5:1 q5:13 44.534900
13 q5:1 _205_:Q 0.000000
14 q5:1 _192_:I1 0.000000
15 q5:1 _184_:A1 0.000000
16 q5:1 _106_:A2 0.000000
17 q5:1 _105_:A1 0.000000
18 q5:1 _103_:A1 0.000000
*END

*D_NET q6 11.425126
*CONN
*I _206_:Q B
*I _197_:I1 B
*I _176_:A1 B
*I _112_:A2 B
*I _111_:A1 B
*I _109_:A1 B
*CAP
1 q6:1 11.215071
2 q6:1 q8:1 0.018511
3 q6:1 q9:1 0.014317
4 q6:1 rel_n_16n 0.004628
5 q6:1 rel_n_256p 0.004628
6 q6:1 rel_n_4n 0.004628
7 q6:1 rel_n_64n 0.009255
8 q6:1 rel_n_8p 0.004628
9 q6:1 samp_tp_n 0.018511
10 q6:1 sel_hi_n_128n 0.004628
11 q6:1 sel_hi_n_16n 0.013883
12 q6:1 sel_hi_n_1n 0.009255
13 q6:1 sel_hi_n_256n 0.013139
14 q6:1 sel_hi_n_32p 0.009255
15 q6:1 sel_hi_n_64n 0.014987
16 q6:1 sel_in_n 0.023139
17 q6:1 sel_lo_n_16p 0.004628
18 q6:1 sel_lo_n_1p 0.009255
19 q6:1 sel_lo_n_256p 0.004628
20 q6:1 sel_lo_n_32n 0.004628
21 q6:1 sel_lo_n_32p 0.010268
22 q6:1 sel_lo_n_64p 0.004628
23 q6:1 start 0.004628
*RES
1 q6:1 q6:2 37.554800
2 q6:1 q6:3 36.136600
3 q6:1 q6:4 39.351800
4 q6:1 q6:5 11.301000
5 q6:1 q6:6 40.149400
6 q6:1 q6:7 34.039400
7 q6:1 q6:8 3.990400
8 q6:1 q6:9 43.424200
9 q6:1 q6:10 13.959200
10 q6:1 q6:11 5.909800
11 q6:1 q6:12 34.317400
12 q6:1 q6:13 43.685700
13 q6:1 _206_:Q 0.000000
14 q6:1 _197_:I1 0.000000
15 q6:1 _176_:A1 0.000000
16 q6:1 _112_:A2 0.000000
17 q6:1 _111_:A1 0.000000
18 q6:1 _109_:A1 0.000000
*END

*D_NET q7 12.136212
*CONN
*I _207_:Q B
*I _198_:I1 B
*I _182_:A1 B
*I _118_:A2 B
*I _117_:A1 B
*I _115_:A1 B
*CAP
1 q7:1 12.015230
2 q7:1 q8:1 0.009255
3 q7:1 q9:1 0.055533
4 q7:1 sel_hi_n_16p 0.018511
5 q7:1 sel_hi_n_256n 0.009255
6 q7:1 sel_hi_n_64n 0.004628
7 q7:1 sel_in_n 0.004628
8 q7:1 sel_lo_n_32p 0.004628
9 q7:1 sel_lo_n_64p 0.005289
10 q7:1 start 0.009255
*RES
1 q7:1 q7:2 31.888000
2 q7:1 q7:3 30.561200
3 q7:1 q7:4 41.210600
4 q7:1 q7:5 19.906200
5 q7:1 q7:6 42.080200
6 q7:1 q7:7 10.287100
7 q7:1 q7:8 31.369000
8 q7:1 q7:9 41.473800
9 q7:1 q7:10 17.171400
10 q7:1 q7:11 30.897900
11 q7:1 q7:12 7.639500
12 q7:1 q7:13 42.909400
13 q7:1 _207_:Q 0.000000
14 q7:1 _198_:I1 0.000000
15 q7:1 _182_:A1 0.000000
16 q7:1 _118_:A2 0.000000
17 q7:1 _117_:A1 0.000000
18 q7:1 _115_:A1 0.000000
*END

*D_NET q8 13.557059
*CONN
*I _208_:Q B
*I _189_:A1 B
*I _171_:I1 B
*I _124_:A2 B
*I _123_:A1 B
*I _121_:A1 B
*CAP
1 q8:1 13.487477
2 q8:1 q9:1 0.018676
3 q8:1 sel_hi_n_16p 0.018511
4 q8:1 sel_hi_n_256n 0.004628
5 q8:1 sel_hi_n_4n 0.004628
6 q8:1 sel_lo_n_32p 0.004628
7 q8:1 start 0.018511
*RES
1 q8:1 q8:2 27.908400
2 q8:1 q8:3 28.523800
3 q8:1 q8:4 30.460300
4 q8:1 q8:5 8.505000
5 q8:1 q8:6 30.346200
6 q8:1 q8:7 37.540500
7 q8:1 q8:8 30.368900
8 q8:1 q8:9 42.442300
9 q8:1 q8:10 9.195200
10 q8:1 q8:11 30.330700
11 q8:1 q8:12 37.692200
12 q8:1 q8:13 42.484800
13 q8:1 _208_:Q 0.000000
14 q8:1 _189_:A1 0.000000
15 q8:1 _171_:I1 0.000000
16 q8:1 _124_:A2 0.000000
17 q8:1 _123_:A1 0.000000
18 q8:1 _121_:A1 0.000000
*END

*D_NET q9 12.478072
*CONN
*I _209_:Q B
*I _195_:A1 B
*I _172_:I1 B
*I _131_:A2 B
*I _130_:A1 B
*I _128_:A1 B
*CAP
1 q9:1 12.430803
2 q9:1 sel_hi_n_16p 0.009255
3 q9:1 sel_hi_n_256n 0.004628
4 q9:1 sel_lo_n_16p 0.004628
5 q9:1 sel_lo_n_256p 0.005619
6 q9:1 sel_lo_n_32p 0.004628
7 q9:1 sel_lo_n_64p 0.004628
8 q9:1 start 0.013883
*RES
1 q9:1 q9:2 34.000600
2 q9:1 q9:3 34.104700
3 q9:1 q9:4 34.397700
4 q9:1 q9:5 11.430900
5 q9:1 q9:6 34.259100
6 q9:1 q9:7 8.216100
7 q9:1 q9:8 42.534900
8 q9:1 q9:9 45.309600
9 q9:1 q9:10 11.124200
10 q9:1 q9:11 7.841200
11 q9:1 q9:12 42.282700
12 q9:1 q9:13 45.323400
13 q9:1 _209_:Q 0.000000
14 q9:1 _195_:A1 0.000000
15 q9:1 _172_:I1 0.000000
16 q9:1 _131_:A2 0.000000
17 q9:1 _130_:A1 0.000000
18 q9:1 _128_:A1 0.000000
*END

*D_NET rel_n_128n 0.498708
*CONN
*P rel_n_128n B
*I _126_:ZN B
*CAP
1 rel_n_128n 0.498708
*RES
1 rel_n_128n rel_n_128n:2 0.466600
2 rel_n_128n rel_n_128n:3 0.340900
3 rel_n_128n rel_n_128n:4 0.319100
4 rel_n_128n rel_n_128n:5 0.516200
5 rel_n_128n _126_:ZN 0.000000
*END

*D_NET rel_n_128p 0.994141
*CONN
*P rel_n_128p B
*I _125_:ZN B
*CAP
1 rel_n_128p 0.955647
2 rel_n_128p rel_n_2p 0.014559
3 rel_n_128p sel_hi_n_2p 0.004628
4 rel_n_128p sel_hi_n_32p 0.004628
5 rel_n_128p sel_hi_n_64p 0.004628
6 rel_n_128p sel_in_n 0.000024
7 rel_n_128p sel_lo_n_2n 0.005399
8 rel_n_128p sel_lo_n_4n 0.004628
*RES
1 rel_n_128p rel_n_128p:2 1.688000
2 rel_n_128p rel_n_128p:3 1.176300
3 rel_n_128p rel_n_128p:4 0.920100
4 rel_n_128p _125_:ZN 0.000000
*END

*D_NET rel_n_16n 1.366473
*CONN
*P rel_n_16n B
*I _108_:ZN B
*CAP
1 rel_n_16n 1.343113
2 rel_n_16n rel_n_4n 0.004628
3 rel_n_16n sel_hi_n_1n 0.004628
4 rel_n_16n sel_hi_n_64n 0.004628
5 rel_n_16n sel_hi_n_8n 0.004848
6 rel_n_16n sel_in_n 0.004628
*RES
1 rel_n_16n rel_n_16n:2 1.744800
2 rel_n_16n rel_n_16n:3 1.274800
3 rel_n_16n rel_n_16n:4 1.193000
4 rel_n_16n rel_n_16n:5 1.930300
5 rel_n_16n _108_:ZN 0.000000
*END

*D_NET rel_n_16p 0.884946
*CONN
*P rel_n_16p B
*I _107_:ZN B
*CAP
1 rel_n_16p 0.879267
2 rel_n_16p samp_tp_n 0.004628
3 rel_n_16p sel_in_n 0.001051
*RES
1 rel_n_16p rel_n_16p:2 1.447100
2 rel_n_16p rel_n_16p:3 1.008500
3 rel_n_16p rel_n_16p:4 0.788800
4 rel_n_16p _107_:ZN 0.000000
*END

*D_NET rel_n_1n 0.978524
*CONN
*P rel_n_1n B
*I _167_:ZN B
*CAP
1 rel_n_1n 0.950756
2 rel_n_1n rel_n_256p 0.004628
3 rel_n_1n rel_n_4n 0.004628
4 rel_n_1n samp_tp_n 0.004628
5 rel_n_1n sel_hi_n_1n 0.004628
6 rel_n_1n sel_lo_n_16p 0.004628
7 rel_n_1n sel_lo_n_64p 0.004628
*RES
1 rel_n_1n rel_n_1n:2 1.131300
2 rel_n_1n rel_n_1n:3 0.826500
3 rel_n_1n rel_n_1n:4 0.773500
4 rel_n_1n rel_n_1n:5 1.251500
5 rel_n_1n _167_:ZN 0.000000
*END

*D_NET rel_n_1p 0.918278
*CONN
*P rel_n_1p B
*I _153_:ZN B
*CAP
1 rel_n_1p 0.898106
2 rel_n_1p rel_n_2p 0.004628
3 rel_n_1p sel_hi_n_2p 0.004628
4 rel_n_1p sel_hi_n_32p 0.004628
5 rel_n_1p sel_in_n 0.001440
6 rel_n_1p sel_lo_n_2n 0.004848
*RES
1 rel_n_1p rel_n_1p:2 1.607700
2 rel_n_1p rel_n_1p:3 1.120400
3 rel_n_1p rel_n_1p:4 0.876300
4 rel_n_1p _153_:ZN 0.000000
*END

*D_NET rel_n_256n 1.086892
*CONN
*P rel_n_256n B
*I _133_:ZN B
*CAP
1 rel_n_256n 1.063752
2 rel_n_256n rel_n_64p 0.004628
3 rel_n_256n sel_hi_n_2n 0.004628
4 rel_n_256n sel_hi_n_4p 0.004628
5 rel_n_256n sel_hi_n_64p 0.004628
6 rel_n_256n sel_in_n 0.004628
*RES
1 rel_n_256n rel_n_256n:2 1.284700
2 rel_n_256n rel_n_256n:3 0.938600
3 rel_n_256n rel_n_256n:4 0.878400
4 rel_n_256n rel_n_256n:5 1.421200
5 rel_n_256n _133_:ZN 0.000000
*END

*D_NET rel_n_256p 0.879691
*CONN
*P rel_n_256p B
*I _132_:ZN B
*CAP
1 rel_n_256p 0.865146
2 rel_n_256p rel_n_4n 0.004628
3 rel_n_256p sel_hi_n_1n 0.004628
4 rel_n_256p sel_in_n 0.005289
*RES
1 rel_n_256p rel_n_256p:2 1.527400
2 rel_n_256p rel_n_256p:3 1.064400
3 rel_n_256p rel_n_256p:4 0.832600
4 rel_n_256p _132_:ZN 0.000000
*END

*D_NET rel_n_2n 0.921494
*CONN
*P rel_n_2n B
*I _143_:ZN B
*CAP
1 rel_n_2n 0.902156
2 rel_n_2n rel_n_64p 0.004628
3 rel_n_2n sel_hi_n_1p 0.004628
4 rel_n_2n sel_hi_n_4p 0.004628
5 rel_n_2n sel_hi_n_64p 0.000826
6 rel_n_2n sel_in_n 0.004628
*RES
1 rel_n_2n rel_n_2n:2 1.097900
2 rel_n_2n rel_n_2n:3 0.678600
3 rel_n_2n rel_n_2n:4 0.992400
4 rel_n_2n rel_n_2n:5 0.725100
5 rel_n_2n _143_:ZN 0.000000
*END

*D_NET rel_n_2p 1.363349
*CONN
*P rel_n_2p B
*I _134_:ZN B
*CAP
1 rel_n_2p 1.315607
2 rel_n_2p sel_hi_n_2p 0.004628
3 rel_n_2p sel_hi_n_32p 0.004628
4 rel_n_2p sel_hi_n_64p 0.004628
5 rel_n_2p sel_in_n 0.002456
6 rel_n_2p sel_lo_n_2n 0.022147
7 rel_n_2p sel_lo_n_4n 0.009255
*RES
1 rel_n_2p rel_n_2p:2 2.490800
2 rel_n_2p rel_n_2p:3 1.735800
3 rel_n_2p rel_n_2p:4 1.357700
4 rel_n_2p _134_:ZN 0.000000
*END

*D_NET rel_n_32n 0.977451
*CONN
*P rel_n_32n B
*I _114_:ZN B
*CAP
1 rel_n_32n 0.949683
2 rel_n_32n rel_n_64p 0.004628
3 rel_n_32n sel_hi_n_1p 0.004628
4 rel_n_32n sel_hi_n_2n 0.004628
5 rel_n_32n sel_hi_n_4p 0.004628
6 rel_n_32n sel_hi_n_64p 0.004628
7 rel_n_32n sel_in_n 0.004628
*RES
1 rel_n_32n rel_n_32n:2 1.182400
2 rel_n_32n rel_n_32n:3 0.863900
3 rel_n_32n rel_n_32n:4 0.808500
4 rel_n_32n rel_n_32n:5 1.308100
5 rel_n_32n _114_:ZN 0.000000
*END

*D_NET rel_n_32p 0.677618
*CONN
*P rel_n_32p B
*I _113_:ZN B
*CAP
1 rel_n_32p 0.672990
2 rel_n_32p rel_n_64p 0.004628
*RES
1 rel_n_32p rel_n_32p:2 1.045700
2 rel_n_32p rel_n_32p:3 0.728700
3 rel_n_32p rel_n_32p:4 0.570000
4 rel_n_32p _113_:ZN 0.000000
*END

*D_NET rel_n_4n 1.179102
*CONN
*P rel_n_4n B
*I _095_:ZN B
*CAP
1 rel_n_4n 1.169020
2 rel_n_4n sel_hi_n_1n 0.004628
3 rel_n_4n sel_hi_n_64n 0.000826
4 rel_n_4n sel_in_n 0.004628
*RES
1 rel_n_4n rel_n_4n:2 0.949500
2 rel_n_4n rel_n_4n:3 1.536200
3 rel_n_4n rel_n_4n:4 1.388600
4 rel_n_4n rel_n_4n:5 1.014600
5 rel_n_4n _095_:ZN 0.000000
*END

*D_NET rel_n_4p 0.887827
*CONN
*P rel_n_4p B
*I _094_:ZN B
*CAP
1 rel_n_4p 0.876115
2 rel_n_4p sel_hi_n_2p 0.004628
3 rel_n_4p sel_hi_n_32p 0.004628
4 rel_n_4p sel_in_n 0.002456
*RES
1 rel_n_4p rel_n_4p:2 1.447100
2 rel_n_4p rel_n_4p:3 1.008500
3 rel_n_4p rel_n_4p:4 0.788800
4 rel_n_4p _094_:ZN 0.000000
*END

*D_NET rel_n_64n 0.875580
*CONN
*P rel_n_64n B
*I _120_:ZN B
*CAP
1 rel_n_64n 0.857069
2 rel_n_64n sel_hi_n_2p 0.004628
3 rel_n_64n sel_hi_n_32p 0.013883
*RES
1 rel_n_64n rel_n_64n:2 0.712400
2 rel_n_64n rel_n_64n:3 1.152500
3 rel_n_64n rel_n_64n:4 1.041800
4 rel_n_64n rel_n_64n:5 0.761200
5 rel_n_64n _120_:ZN 0.000000
*END

*D_NET rel_n_64p 1.954075
*CONN
*P rel_n_64p B
*I _119_:ZN B
*CAP
1 rel_n_64p 1.908132
2 rel_n_64p rel_n_8n 0.004628
3 rel_n_64p sel_hi_n_16p 0.004628
4 rel_n_64p sel_hi_n_1p 0.004628
5 rel_n_64p sel_hi_n_2n 0.004628
6 rel_n_64p sel_hi_n_4p 0.004628
7 rel_n_64p sel_in_n 0.008919
8 rel_n_64p sel_lo_n_4n 0.004628
9 rel_n_64p sel_lo_n_8n 0.004628
10 rel_n_64p sel_lo_n_8p 0.004628
*RES
1 rel_n_64p rel_n_64p:2 3.855700
2 rel_n_64p rel_n_64p:3 2.687000
3 rel_n_64p rel_n_64p:4 2.101700
4 rel_n_64p _119_:ZN 0.000000
*END

*D_NET rel_n_8n 0.650250
*CONN
*P rel_n_8n B
*I _102_:ZN B
*CAP
1 rel_n_8n 0.636367
2 rel_n_8n sel_hi_n_4p 0.013883
*RES
1 rel_n_8n rel_n_8n:2 0.490400
2 rel_n_8n rel_n_8n:3 0.671200
3 rel_n_8n rel_n_8n:4 0.742500
4 rel_n_8n rel_n_8n:5 0.458900
5 rel_n_8n _102_:ZN 0.000000
*END

*D_NET rel_n_8p 1.052937
*CONN
*P rel_n_8p B
*I _101_:ZN B
*CAP
1 rel_n_8p 1.043232
2 rel_n_8p samp_tp_n 0.004628
3 rel_n_8p sel_in_n 0.000449
4 rel_n_8p sel_lo_n_64p 0.004628
*RES
1 rel_n_8p rel_n_8p:2 1.848500
2 rel_n_8p rel_n_8p:3 1.288200
3 rel_n_8p rel_n_8p:4 1.007600
4 rel_n_8p _101_:ZN 0.000000
*END

*D_NET samp_tp_n 4.484415
*CONN
*P samp_tp_n B
*I _092_:ZN B
*CAP
1 samp_tp_n 4.461275
2 samp_tp_n sel_hi_n_128n 0.004628
3 samp_tp_n sel_hi_n_1n 0.004628
4 samp_tp_n sel_hi_n_8n 0.004628
5 samp_tp_n sel_lo_n_16p 0.004628
6 samp_tp_n sel_lo_n_64p 0.004628
*RES
1 samp_tp_n samp_tp_n:2 8.250200
2 samp_tp_n samp_tp_n:3 4.374800
3 samp_tp_n samp_tp_n:4 2.750100
4 samp_tp_n samp_tp_n:5 6.334600
5 samp_tp_n _092_:ZN 0.000000
*END

*D_NET sel_hi_n_128n 1.214377
*CONN
*P sel_hi_n_128n B
*I _124_:ZN B
*CAP
1 sel_hi_n_128n 1.200494
2 sel_hi_n_128n sel_in_n 0.013883
*RES
1 sel_hi_n_128n sel_hi_n_128n:2 1.864800
2 sel_hi_n_128n sel_hi_n_128n:3 1.028100
3 sel_hi_n_128n sel_hi_n_128n:4 1.511200
4 sel_hi_n_128n sel_hi_n_128n:5 0.621600
5 sel_hi_n_128n _124_:ZN 0.000000
*END

*D_NET sel_hi_n_128p 2.737178
*CONN
*P sel_hi_n_128p B
*I _122_:A2 B
*I _121_:Z B
*CAP
1 sel_hi_n_128p 2.681172
2 sel_hi_n_128p sel_hi_n_256p 0.013883
3 sel_hi_n_128p sel_hi_n_2n 0.004628
4 sel_hi_n_128p sel_hi_n_4p 0.004628
5 sel_hi_n_128p sel_hi_n_64p 0.004628
6 sel_hi_n_128p sel_hi_n_8n 0.009255
7 sel_hi_n_128p sel_lo_n_128n 0.004628
8 sel_hi_n_128p sel_lo_n_256n 0.000472
9 sel_hi_n_128p sel_lo_n_8n 0.004628
10 sel_hi_n_128p sel_lo_n_8p 0.004628
11 sel_hi_n_128p start 0.004628
*RES
1 sel_hi_n_128p sel_hi_n_128p:2 17.356600
2 sel_hi_n_128p sel_hi_n_128p:3 19.992200
3 sel_hi_n_128p sel_hi_n_128p:4 20.217000
4 sel_hi_n_128p sel_hi_n_128p:5 17.160700
5 sel_hi_n_128p _122_:A2 0.000000
6 sel_hi_n_128p _121_:Z 0.000000
*END

*D_NET sel_hi_n_16n 1.690590
*CONN
*P sel_hi_n_16n B
*I _106_:ZN B
*CAP
1 sel_hi_n_16n 1.645323
2 sel_hi_n_16n sel_hi_n_256n 0.004628
3 sel_hi_n_16n sel_hi_n_2p 0.004628
4 sel_hi_n_16n sel_hi_n_32p 0.004628
5 sel_hi_n_16n sel_in_n 0.004628
6 sel_hi_n_16n sel_lo_n_1p 0.004628
7 sel_hi_n_16n sel_lo_n_256p 0.017499
8 sel_hi_n_16n sel_lo_n_32p 0.004628
*RES
1 sel_hi_n_16n sel_hi_n_16n:2 2.733100
2 sel_hi_n_16n sel_hi_n_16n:3 1.506800
3 sel_hi_n_16n sel_hi_n_16n:4 2.214800
4 sel_hi_n_16n sel_hi_n_16n:5 0.911000
5 sel_hi_n_16n _106_:ZN 0.000000
*END

*D_NET sel_hi_n_16p 5.389496
*CONN
*P sel_hi_n_16p B
*I _104_:A2 B
*I _103_:Z B
*CAP
1 sel_hi_n_16p 5.332914
2 sel_hi_n_16p sel_hi_n_1p 0.004628
3 sel_hi_n_16p sel_hi_n_256p 0.004628
4 sel_hi_n_16p sel_hi_n_2n 0.004628
5 sel_hi_n_16p sel_hi_n_4n 0.004628
6 sel_hi_n_16p sel_hi_n_4p 0.004628
7 sel_hi_n_16p sel_hi_n_64p 0.004628
8 sel_hi_n_16p sel_hi_n_8n 0.004848
9 sel_hi_n_16p sel_lo_n_128p 0.004628
10 sel_hi_n_16p sel_lo_n_16n 0.005454
11 sel_hi_n_16p sel_lo_n_8n 0.004628
12 sel_hi_n_16p sel_lo_n_8p 0.004628
13 sel_hi_n_16p start 0.004628
*RES
1 sel_hi_n_16p sel_hi_n_16p:2 21.981200
2 sel_hi_n_16p sel_hi_n_16p:3 22.327000
3 sel_hi_n_16p sel_hi_n_16p:4 21.986300
4 sel_hi_n_16p sel_hi_n_16p:5 22.318100
5 sel_hi_n_16p _104_:A2 0.000000
6 sel_hi_n_16p _103_:Z 0.000000
*END

*D_NET sel_hi_n_1n 1.990159
*CONN
*P sel_hi_n_1n B
*I _163_:ZN B
*CAP
1 sel_hi_n_1n 1.957764
2 sel_hi_n_1n sel_in_n 0.013883
3 sel_hi_n_1n sel_lo_n_1p 0.004628
4 sel_hi_n_1n sel_lo_n_256p 0.004628
5 sel_hi_n_1n sel_lo_n_32n 0.004628
6 sel_hi_n_1n sel_lo_n_32p 0.004628
*RES
1 sel_hi_n_1n sel_hi_n_1n:2 1.750100
2 sel_hi_n_1n sel_hi_n_1n:3 3.174400
3 sel_hi_n_1n sel_hi_n_1n:4 1.058100
4 sel_hi_n_1n sel_hi_n_1n:5 2.572400
5 sel_hi_n_1n _163_:ZN 0.000000
*END

*D_NET sel_hi_n_1p 2.321024
*CONN
*P sel_hi_n_1p B
*I _160_:A2 B
*I _155_:Z B
*CAP
1 sel_hi_n_1p 2.265823
2 sel_hi_n_1p sel_hi_n_2n 0.004628
3 sel_hi_n_1p sel_hi_n_4p 0.009255
4 sel_hi_n_1p sel_hi_n_64p 0.018180
5 sel_hi_n_1p sel_in_n 0.004628
6 sel_hi_n_1p sel_lo_n_1n 0.009255
7 sel_hi_n_1p sel_lo_n_8n 0.009255
*RES
1 sel_hi_n_1p sel_hi_n_1p:2 11.293400
2 sel_hi_n_1p sel_hi_n_1p:3 25.123800
3 sel_hi_n_1p sel_hi_n_1p:4 24.974200
4 sel_hi_n_1p sel_hi_n_1p:5 11.165200
5 sel_hi_n_1p _160_:A2 0.000000
6 sel_hi_n_1p _155_:Z 0.000000
*END

*D_NET sel_hi_n_256n 1.680672
*CONN
*P sel_hi_n_256n B
*I _131_:ZN B
*CAP
1 sel_hi_n_256n 1.661940
2 sel_hi_n_256n sel_hi_n_2p 0.004628
3 sel_hi_n_256n sel_hi_n_32p 0.004628
4 sel_hi_n_256n sel_hi_n_8n 0.004848
5 sel_hi_n_256n sel_in_n 0.004628
*RES
1 sel_hi_n_256n sel_hi_n_256n:2 2.821000
2 sel_hi_n_256n sel_hi_n_256n:3 1.555300
3 sel_hi_n_256n sel_hi_n_256n:4 2.286000
4 sel_hi_n_256n sel_hi_n_256n:5 0.940300
5 sel_hi_n_256n _131_:ZN 0.000000
*END

*D_NET sel_hi_n_256p 3.351863
*CONN
*P sel_hi_n_256p B
*I _129_:A2 B
*I _128_:Z B
*CAP
1 sel_hi_n_256p 3.286852
2 sel_hi_n_256p sel_hi_n_2n 0.004628
3 sel_hi_n_256p sel_hi_n_4n 0.004628
4 sel_hi_n_256p sel_hi_n_4p 0.004628
5 sel_hi_n_256p sel_hi_n_64p 0.004628
6 sel_hi_n_256p sel_hi_n_8n 0.004848
7 sel_hi_n_256p sel_lo_n_128p 0.004628
8 sel_hi_n_256p sel_lo_n_16n 0.004628
9 sel_hi_n_256p sel_lo_n_256n 0.018511
10 sel_hi_n_256p sel_lo_n_4p 0.004628
11 sel_hi_n_256p sel_lo_n_8p 0.004628
12 sel_hi_n_256p start 0.004628
*RES
1 sel_hi_n_256p sel_hi_n_256p:2 19.547800
2 sel_hi_n_256p sel_hi_n_256p:3 19.507200
3 sel_hi_n_256p sel_hi_n_256p:4 19.554600
4 sel_hi_n_256p sel_hi_n_256p:5 19.515900
5 sel_hi_n_256p _129_:A2 0.000000
6 sel_hi_n_256p _128_:Z 0.000000
*END

*D_NET sel_hi_n_2n 2.995364
*CONN
*P sel_hi_n_2n B
*I _147_:ZN B
*CAP
1 sel_hi_n_2n 2.939168
2 sel_hi_n_2n sel_hi_n_4p 0.009255
3 sel_hi_n_2n sel_hi_n_64p 0.004628
4 sel_hi_n_2n sel_in_n 0.004628
5 sel_hi_n_2n sel_lo_n_128n 0.004628
6 sel_hi_n_2n sel_lo_n_128p 0.004628
7 sel_hi_n_2n sel_lo_n_16n 0.004628
8 sel_hi_n_2n sel_lo_n_256n 0.004628
9 sel_hi_n_2n sel_lo_n_8n 0.009917
10 sel_hi_n_2n sel_lo_n_8p 0.004628
11 sel_hi_n_2n start 0.004628
*RES
1 sel_hi_n_2n sel_hi_n_2n:2 5.208800
2 sel_hi_n_2n sel_hi_n_2n:3 2.871700
3 sel_hi_n_2n sel_hi_n_2n:4 4.221000
4 sel_hi_n_2n sel_hi_n_2n:5 1.736300
5 sel_hi_n_2n _147_:ZN 0.000000
*END

*D_NET sel_hi_n_2p 3.004882
*CONN
*P sel_hi_n_2p B
*I _150_:A2 B
*I _135_:Z B
*CAP
1 sel_hi_n_2p 2.958606
2 sel_hi_n_2p sel_hi_n_32p 0.013883
3 sel_hi_n_2p sel_hi_n_64n 0.004628
4 sel_hi_n_2p sel_hi_n_64p 0.009255
5 sel_hi_n_2p sel_in_n 0.009255
6 sel_hi_n_2p sel_lo_n_4n 0.009255
*RES
1 sel_hi_n_2p sel_hi_n_2p:2 21.933000
2 sel_hi_n_2p sel_hi_n_2p:3 16.039500
3 sel_hi_n_2p sel_hi_n_2p:4 21.811300
4 sel_hi_n_2p sel_hi_n_2p:5 16.129000
5 sel_hi_n_2p _150_:A2 0.000000
6 sel_hi_n_2p _135_:Z 0.000000
*END

*D_NET sel_hi_n_32n 0.755528
*CONN
*P sel_hi_n_32n B
*I _112_:ZN B
*CAP
1 sel_hi_n_32n 0.755528
*RES
1 sel_hi_n_32n sel_hi_n_32n:2 0.950900
2 sel_hi_n_32n sel_hi_n_32n:3 0.524300
3 sel_hi_n_32n sel_hi_n_32n:4 0.770600
4 sel_hi_n_32n sel_hi_n_32n:5 0.317000
5 sel_hi_n_32n _112_:ZN 0.000000
*END

*D_NET sel_hi_n_32p 2.651998
*CONN
*P sel_hi_n_32p B
*I _110_:A2 B
*I _109_:Z B
*CAP
1 sel_hi_n_32p 2.633487
2 sel_hi_n_32p sel_hi_n_64n 0.004628
3 sel_hi_n_32p sel_in_n 0.013883
*RES
1 sel_hi_n_32p sel_hi_n_32p:2 23.143100
2 sel_hi_n_32p sel_hi_n_32p:3 14.227300
3 sel_hi_n_32p sel_hi_n_32p:4 14.026500
4 sel_hi_n_32p sel_hi_n_32p:5 23.110500
5 sel_hi_n_32p _110_:A2 0.000000
6 sel_hi_n_32p _109_:Z 0.000000
*END

*D_NET sel_hi_n_4n 3.709317
*CONN
*P sel_hi_n_4n B
*I _091_:ZN B
*CAP
1 sel_hi_n_4n 3.667446
2 sel_hi_n_4n sel_hi_n_64p 0.004628
3 sel_hi_n_4n sel_hi_n_8n 0.004848
4 sel_hi_n_4n sel_in_n 0.004628
5 sel_hi_n_4n sel_lo_n_128p 0.004628
6 sel_hi_n_4n sel_lo_n_16n 0.004628
7 sel_hi_n_4n sel_lo_n_4n 0.004628
8 sel_hi_n_4n sel_lo_n_8p 0.009255
9 sel_hi_n_4n start 0.004628
*RES
1 sel_hi_n_4n sel_hi_n_4n:2 6.580700
2 sel_hi_n_4n sel_hi_n_4n:3 3.628100
3 sel_hi_n_4n sel_hi_n_4n:4 5.332700
4 sel_hi_n_4n sel_hi_n_4n:5 2.193600
5 sel_hi_n_4n _091_:ZN 0.000000
*END

*D_NET sel_hi_n_4p 3.316389
*CONN
*P sel_hi_n_4p B
*I _127_:A2 B
*I _096_:Z B
*CAP
1 sel_hi_n_4p 3.272379
2 sel_hi_n_4p sel_hi_n_64p 0.004628
3 sel_hi_n_4p sel_hi_n_8p 0.006986
4 sel_hi_n_4p sel_in_n 0.004628
5 sel_hi_n_4p sel_lo_n_128n 0.004628
6 sel_hi_n_4p sel_lo_n_128p 0.004628
7 sel_hi_n_4p sel_lo_n_16n 0.004628
8 sel_hi_n_4p sel_lo_n_8n 0.004628
9 sel_hi_n_4p sel_lo_n_8p 0.004628
10 sel_hi_n_4p start 0.004628
*RES
1 sel_hi_n_4p sel_hi_n_4p:2 19.139400
2 sel_hi_n_4p sel_hi_n_4p:3 19.794000
3 sel_hi_n_4p sel_hi_n_4p:4 19.702100
4 sel_hi_n_4p sel_hi_n_4p:5 19.222100
5 sel_hi_n_4p _127_:A2 0.000000
6 sel_hi_n_4p _096_:Z 0.000000
*END

*D_NET sel_hi_n_64n 2.497642
*CONN
*P sel_hi_n_64n B
*I _118_:ZN B
*CAP
1 sel_hi_n_64n 2.460619
2 sel_hi_n_64n sel_in_n 0.013883
3 sel_hi_n_64n sel_lo_n_16p 0.004628
4 sel_hi_n_64n sel_lo_n_1p 0.004628
5 sel_hi_n_64n sel_lo_n_256p 0.004628
6 sel_hi_n_64n sel_lo_n_32p 0.004628
7 sel_hi_n_64n sel_lo_n_64p 0.004628
*RES
1 sel_hi_n_64n sel_hi_n_64n:2 4.285900
2 sel_hi_n_64n sel_hi_n_64n:3 2.362900
3 sel_hi_n_64n sel_hi_n_64n:4 3.473200
4 sel_hi_n_64n sel_hi_n_64n:5 1.428600
5 sel_hi_n_64n _118_:ZN 0.000000
*END

*D_NET sel_hi_n_64p 4.977090
*CONN
*P sel_hi_n_64p B
*I _116_:A2 B
*I _115_:Z B
*CAP
1 sel_hi_n_64p 4.903044
2 sel_hi_n_64p sel_hi_n_8p 0.004628
3 sel_hi_n_64p sel_in_n 0.027766
4 sel_hi_n_64p sel_lo_n_128n 0.004628
5 sel_hi_n_64p sel_lo_n_128p 0.004628
6 sel_hi_n_64p sel_lo_n_16n 0.004628
7 sel_hi_n_64p sel_lo_n_1n 0.004628
8 sel_hi_n_64p sel_lo_n_256n 0.004628
9 sel_hi_n_64p sel_lo_n_4n 0.004628
10 sel_hi_n_64p sel_lo_n_8n 0.004628
11 sel_hi_n_64p sel_lo_n_8p 0.004628
12 sel_hi_n_64p start 0.004628
*RES
1 sel_hi_n_64p sel_hi_n_64p:2 21.303000
2 sel_hi_n_64p sel_hi_n_64p:3 21.769800
3 sel_hi_n_64p sel_hi_n_64p:4 21.760100
4 sel_hi_n_64p sel_hi_n_64p:5 21.308300
5 sel_hi_n_64p _116_:A2 0.000000
6 sel_hi_n_64p _115_:Z 0.000000
*END

*D_NET sel_hi_n_8n 6.451008
*CONN
*P sel_hi_n_8n B
*I _100_:ZN B
*CAP
1 sel_hi_n_8n 6.408256
2 sel_hi_n_8n sel_in_n 0.004628
3 sel_hi_n_8n sel_lo_n_128p 0.004628
4 sel_hi_n_8n sel_lo_n_16n 0.004628
5 sel_hi_n_8n sel_lo_n_16p 0.004848
6 sel_hi_n_8n sel_lo_n_256n 0.004628
7 sel_hi_n_8n sel_lo_n_32p 0.004848
8 sel_hi_n_8n sel_lo_n_64p 0.004848
9 sel_hi_n_8n sel_lo_n_8p 0.004848
10 sel_hi_n_8n start 0.004848
*RES
1 sel_hi_n_8n sel_hi_n_8n:2 6.760300
2 sel_hi_n_8n sel_hi_n_8n:3 3.727100
3 sel_hi_n_8n sel_hi_n_8n:4 5.478300
4 sel_hi_n_8n sel_hi_n_8n:5 2.253400
5 sel_hi_n_8n _100_:ZN 0.000000
*END

*D_NET sel_hi_n_8p 1.796292
*CONN
*P sel_hi_n_8p B
*I _098_:A2 B
*I _097_:Z B
*CAP
1 sel_hi_n_8p 1.773152
2 sel_hi_n_8p sel_lo_n_128n 0.004628
3 sel_hi_n_8p sel_lo_n_128p 0.004628
4 sel_hi_n_8p sel_lo_n_16n 0.004628
5 sel_hi_n_8p sel_lo_n_4p 0.004628
6 sel_hi_n_8p start 0.004628
*RES
1 sel_hi_n_8p sel_hi_n_8p:2 17.918400
2 sel_hi_n_8p sel_hi_n_8p:3 17.033100
3 sel_hi_n_8p sel_hi_n_8p:4 17.119700
4 sel_hi_n_8p sel_hi_n_8p:5 18.022700
5 sel_hi_n_8p _098_:A2 0.000000
6 sel_hi_n_8p _097_:Z 0.000000
*END

*D_NET sel_in_n 23.676517
*CONN
*P sel_in_n B
*I _167_:B B
*I _153_:A2 B
*I _143_:B B
*I _134_:A2 B
*I _133_:B B
*I _132_:A2 B
*I _126_:B B
*I _125_:A2 B
*I _120_:B B
*I _119_:A2 B
*I _114_:B B
*I _113_:A2 B
*I _108_:B B
*I _107_:A2 B
*I _102_:B B
*I _101_:A2 B
*I _095_:B B
*I _094_:A2 B
*I _093_:Z B
*CAP
1 sel_in_n 23.629751
2 sel_in_n sel_lo_n_16p 0.004628
3 sel_in_n sel_lo_n_1p 0.005115
4 sel_in_n sel_lo_n_256p 0.004628
5 sel_in_n sel_lo_n_32n 0.004628
6 sel_in_n sel_lo_n_32p 0.004628
7 sel_in_n sel_lo_n_4n 0.009255
8 sel_in_n sel_lo_n_64p 0.004628
9 sel_in_n sel_lo_n_8n 0.004628
10 sel_in_n sel_lo_n_8p 0.004628
*RES
1 sel_in_n sel_in_n:2 43.016500
2 sel_in_n sel_in_n:3 42.649200
3 sel_in_n sel_in_n:4 36.875700
4 sel_in_n sel_in_n:5 117.302800
5 sel_in_n sel_in_n:6 117.387400
6 sel_in_n sel_in_n:7 6.021900
7 sel_in_n sel_in_n:8 19.308500
8 sel_in_n sel_in_n:9 5.621600
9 sel_in_n sel_in_n:10 32.131900
10 sel_in_n sel_in_n:11 26.758500
11 sel_in_n sel_in_n:12 38.388000
12 sel_in_n sel_in_n:13 36.894600
13 sel_in_n sel_in_n:14 21.970100
14 sel_in_n sel_in_n:15 23.420000
15 sel_in_n sel_in_n:16 19.136700
16 sel_in_n sel_in_n:17 22.302600
17 sel_in_n sel_in_n:18 16.564300
18 sel_in_n sel_in_n:19 34.719900
19 sel_in_n sel_in_n:20 28.694100
20 sel_in_n sel_in_n:21 40.683600
21 sel_in_n sel_in_n:22 23.337800
22 sel_in_n sel_in_n:23 16.152400
23 sel_in_n sel_in_n:24 8.986400
24 sel_in_n sel_in_n:25 4.268400
25 sel_in_n sel_in_n:26 21.149500
26 sel_in_n sel_in_n:27 31.458800
27 sel_in_n sel_in_n:28 37.814200
28 sel_in_n sel_in_n:29 27.381800
29 sel_in_n sel_in_n:30 24.276000
30 sel_in_n sel_in_n:31 40.786600
31 sel_in_n sel_in_n:32 16.161100
32 sel_in_n sel_in_n:33 28.810300
33 sel_in_n sel_in_n:34 9.059000
34 sel_in_n sel_in_n:35 35.125500
35 sel_in_n sel_in_n:36 4.496100
36 sel_in_n sel_in_n:37 23.321900
37 sel_in_n sel_in_n:38 22.431500
38 sel_in_n sel_in_n:39 17.473900
39 sel_in_n _167_:B 0.000000
40 sel_in_n _153_:A2 0.000000
41 sel_in_n _143_:B 0.000000
42 sel_in_n _134_:A2 0.000000
43 sel_in_n _133_:B 0.000000
44 sel_in_n _132_:A2 0.000000
45 sel_in_n _126_:B 0.000000
46 sel_in_n _125_:A2 0.000000
47 sel_in_n _120_:B 0.000000
48 sel_in_n _119_:A2 0.000000
49 sel_in_n _114_:B 0.000000
50 sel_in_n _113_:A2 0.000000
51 sel_in_n _108_:B 0.000000
52 sel_in_n _107_:A2 0.000000
53 sel_in_n _102_:B 0.000000
54 sel_in_n _101_:A2 0.000000
55 sel_in_n _095_:B 0.000000
56 sel_in_n _094_:A2 0.000000
57 sel_in_n _093_:Z 0.000000
*END

*D_NET sel_lo_n_128n 1.117483
*CONN
*P sel_lo_n_128n B
*I _122_:Z B
*CAP
1 sel_lo_n_128n 1.112855
2 sel_lo_n_128n sel_lo_n_4p 0.004628
*RES
1 sel_lo_n_128n sel_lo_n_128n:2 2.128400
2 sel_lo_n_128n sel_lo_n_128n:3 2.128400
3 sel_lo_n_128n _122_:Z 0.000000
*END

*D_NET sel_lo_n_128p 2.047226
*CONN
*P sel_lo_n_128p B
*I _123_:ZN B
*CAP
1 sel_lo_n_128p 2.024086
2 sel_lo_n_128p sel_lo_n_16n 0.004628
3 sel_lo_n_128p sel_lo_n_256n 0.004628
4 sel_lo_n_128p sel_lo_n_4p 0.004628
5 sel_lo_n_128p sel_lo_n_8p 0.004628
6 sel_lo_n_128p start 0.004628
*RES
1 sel_lo_n_128p sel_lo_n_128p:2 4.337400
2 sel_lo_n_128p sel_lo_n_128p:3 3.022700
3 sel_lo_n_128p sel_lo_n_128p:4 2.364300
4 sel_lo_n_128p _123_:ZN 0.000000
*END

*D_NET sel_lo_n_16n 1.833632
*CONN
*P sel_lo_n_16n B
*I _104_:Z B
*CAP
1 sel_lo_n_16n 1.819748
2 sel_lo_n_16n sel_lo_n_256n 0.004628
3 sel_lo_n_16n sel_lo_n_4p 0.004628
4 sel_lo_n_16n sel_lo_n_8p 0.004628
*RES
1 sel_lo_n_16n sel_lo_n_16n:2 4.288400
2 sel_lo_n_16n sel_lo_n_16n:3 4.288400
3 sel_lo_n_16n _104_:Z 0.000000
*END

*D_NET sel_lo_n_16p 1.094739
*CONN
*P sel_lo_n_16p B
*I _105_:ZN B
*CAP
1 sel_lo_n_16p 1.094739
*RES
1 sel_lo_n_16p sel_lo_n_16p:2 2.109500
2 sel_lo_n_16p sel_lo_n_16p:3 1.470100
3 sel_lo_n_16p sel_lo_n_16p:4 1.149900
4 sel_lo_n_16p _105_:ZN 0.000000
*END

*D_NET sel_lo_n_1n 0.900991
*CONN
*P sel_lo_n_1n B
*I _160_:Z B
*CAP
1 sel_lo_n_1n 0.900991
*RES
1 sel_lo_n_1n sel_lo_n_1n:2 1.669400
2 sel_lo_n_1n sel_lo_n_1n:3 1.669400
3 sel_lo_n_1n _160_:Z 0.000000
*END

*D_NET sel_lo_n_1p 1.548426
*CONN
*P sel_lo_n_1p B
*I _158_:ZN B
*CAP
1 sel_lo_n_1p 1.529915
2 sel_lo_n_1p sel_lo_n_256p 0.009255
3 sel_lo_n_1p sel_lo_n_32n 0.004628
4 sel_lo_n_1p sel_lo_n_32p 0.004628
*RES
1 sel_lo_n_1p sel_lo_n_1p:2 3.001200
2 sel_lo_n_1p sel_lo_n_1p:3 2.091500
3 sel_lo_n_1p sel_lo_n_1p:4 1.636000
4 sel_lo_n_1p _158_:ZN 0.000000
*END

*D_NET sel_lo_n_256n 1.410745
*CONN
*P sel_lo_n_256n B
*I _129_:Z B
*CAP
1 sel_lo_n_256n 1.396861
2 sel_lo_n_256n sel_lo_n_4p 0.004628
3 sel_lo_n_256n sel_lo_n_64n 0.004628
4 sel_lo_n_256n sel_lo_n_8p 0.004628
*RES
1 sel_lo_n_256n sel_lo_n_256n:2 3.118400
2 sel_lo_n_256n sel_lo_n_256n:3 3.118400
3 sel_lo_n_256n _129_:Z 0.000000
*END

*D_NET sel_lo_n_256p 1.452890
*CONN
*P sel_lo_n_256p B
*I _130_:ZN B
*CAP
1 sel_lo_n_256p 1.443635
2 sel_lo_n_256p sel_lo_n_32p 0.009255
*RES
1 sel_lo_n_256p sel_lo_n_256p:2 2.812000
2 sel_lo_n_256p sel_lo_n_256p:3 1.959700
3 sel_lo_n_256p sel_lo_n_256p:4 1.532800
4 sel_lo_n_256p _130_:ZN 0.000000
*END

*D_NET sel_lo_n_2n 0.851820
*CONN
*P sel_lo_n_2n B
*I _150_:Z B
*CAP
1 sel_lo_n_2n 0.851820
*RES
1 sel_lo_n_2n sel_lo_n_2n:2 1.192200
2 sel_lo_n_2n sel_lo_n_2n:3 1.192200
3 sel_lo_n_2n _150_:Z 0.000000
*END

*D_NET sel_lo_n_2p 1.040657
*CONN
*P sel_lo_n_2p B
*I _138_:ZN B
*CAP
1 sel_lo_n_2p 1.036029
2 sel_lo_n_2p sel_lo_n_64n 0.004628
*RES
1 sel_lo_n_2p sel_lo_n_2p:2 1.848500
2 sel_lo_n_2p sel_lo_n_2p:3 1.007600
3 sel_lo_n_2p sel_lo_n_2p:4 1.288200
4 sel_lo_n_2p _138_:ZN 0.000000
*END

*D_NET sel_lo_n_32n 0.987060
*CONN
*P sel_lo_n_32n B
*I _110_:Z B
*CAP
1 sel_lo_n_32n 0.987060
*RES
1 sel_lo_n_32n sel_lo_n_32n:2 1.849700
2 sel_lo_n_32n sel_lo_n_32n:3 1.849700
3 sel_lo_n_32n _110_:Z 0.000000
*END

*D_NET sel_lo_n_32p 2.395872
*CONN
*P sel_lo_n_32p B
*I _111_:ZN B
*CAP
1 sel_lo_n_32p 2.390914
2 sel_lo_n_32p sel_lo_n_64p 0.004958
*RES
1 sel_lo_n_32p sel_lo_n_32p:2 5.140200
2 sel_lo_n_32p sel_lo_n_32p:3 3.582200
3 sel_lo_n_32p sel_lo_n_32p:4 2.801900
4 sel_lo_n_32p _111_:ZN 0.000000
*END

*D_NET sel_lo_n_4n 1.385754
*CONN
*P sel_lo_n_4n B
*I _127_:Z B
*CAP
1 sel_lo_n_4n 1.385754
*RES
1 sel_lo_n_4n sel_lo_n_4n:2 3.028400
2 sel_lo_n_4n sel_lo_n_4n:3 3.028400
3 sel_lo_n_4n _127_:Z 0.000000
*END

*D_NET sel_lo_n_4p 1.421665
*CONN
*P sel_lo_n_4p B
*I _090_:ZN B
*CAP
1 sel_lo_n_4p 1.412409
2 sel_lo_n_4p sel_lo_n_64n 0.004628
3 sel_lo_n_4p start 0.004628
*RES
1 sel_lo_n_4p sel_lo_n_4p:2 2.731700
2 sel_lo_n_4p sel_lo_n_4p:3 1.903700
3 sel_lo_n_4p sel_lo_n_4p:4 1.489000
4 sel_lo_n_4p _090_:ZN 0.000000
*END

*D_NET sel_lo_n_64n 0.707220
*CONN
*P sel_lo_n_64n B
*I _116_:Z B
*CAP
1 sel_lo_n_64n 0.707220
*RES
1 sel_lo_n_64n sel_lo_n_64n:2 1.236500
2 sel_lo_n_64n sel_lo_n_64n:3 1.236500
3 sel_lo_n_64n _116_:Z 0.000000
*END

*D_NET sel_lo_n_64p 1.447199
*CONN
*P sel_lo_n_64p B
*I _117_:ZN B
*CAP
1 sel_lo_n_64p 1.447199
*RES
1 sel_lo_n_64p sel_lo_n_64p:2 2.972500
2 sel_lo_n_64p sel_lo_n_64p:3 2.071600
3 sel_lo_n_64p sel_lo_n_64p:4 1.620300
4 sel_lo_n_64p _117_:ZN 0.000000
*END

*D_NET sel_lo_n_8n 1.589998
*CONN
*P sel_lo_n_8n B
*I _098_:Z B
*CAP
1 sel_lo_n_8n 1.589998
*RES
1 sel_lo_n_8n sel_lo_n_8n:2 3.536300
2 sel_lo_n_8n sel_lo_n_8n:3 3.536200
3 sel_lo_n_8n _098_:Z 0.000000
*END

*D_NET sel_lo_n_8p 3.108224
*CONN
*P sel_lo_n_8p B
*I _099_:ZN B
*CAP
1 sel_lo_n_8p 3.103596
2 sel_lo_n_8p start 0.004628
*RES
1 sel_lo_n_8p sel_lo_n_8p:2 6.745900
2 sel_lo_n_8p sel_lo_n_8p:3 4.701300
3 sel_lo_n_8p sel_lo_n_8p:4 3.677200
4 sel_lo_n_8p _099_:ZN 0.000000
*END

*D_NET start 31.370165
*CONN
*P start B
*I _170_:A1 B
*I _169_:A2 B
*I _168_:A2 B
*I _166_:A2 B
*I _165_:A2 B
*I _164_:A2 B
*I _162_:A2 B
*I _161_:A2 B
*I _159_:A2 B
*I _157_:A2 B
*I _156_:A2 B
*I _154_:A2 B
*I _152_:A2 B
*I _151_:A2 B
*I _149_:A2 B
*I _148_:A2 B
*CAP
1 start 31.370165
*RES
1 start start:2 22.647300
2 start start:3 22.381500
3 start start:4 49.145600
4 start start:5 49.255700
5 start start:6 32.552600
6 start start:7 5.946400
7 start start:8 45.213100
8 start start:9 33.075300
9 start start:10 38.494300
10 start start:11 20.505000
11 start start:12 39.677400
12 start start:13 32.866900
13 start start:14 21.628900
14 start start:15 36.124100
15 start start:16 49.213400
16 start start:17 30.678700
17 start start:18 19.203500
18 start start:19 6.728200
19 start start:20 49.340100
20 start start:21 20.568100
21 start start:22 36.296300
22 start start:23 30.432300
23 start start:24 49.065200
24 start start:25 39.734700
25 start start:26 49.287500
26 start start:27 19.057200
27 start start:28 45.206200
28 start start:29 21.501900
29 start start:30 38.398500
30 start start:31 33.053700
31 start start:32 33.245700
32 start start:33 32.601400
33 start _170_:A1 0.000000
34 start _169_:A2 0.000000
35 start _168_:A2 0.000000
36 start _166_:A2 0.000000
37 start _165_:A2 0.000000
38 start _164_:A2 0.000000
39 start _162_:A2 0.000000
40 start _161_:A2 0.000000
41 start _159_:A2 0.000000
42 start _157_:A2 0.000000
43 start _156_:A2 0.000000
44 start _154_:A2 0.000000
45 start _152_:A2 0.000000
46 start _151_:A2 0.000000
47 start _149_:A2 0.000000
48 start _148_:A2 0.000000
*END

